Name: Luteone diglucoside malonylated
DB#: MSBNK-IPB_Halle-PN000089
InChI: N/A
SMILES: N/A
Precursor_type: [M-H]-
Spectrum_type: MS2
PrecursorMZ: 763.212
Instrument_type: ESI-TOF
Instrument: micrOTOF-Q
Ion_mode: NEGATIVE
Collision_energy: 25 eV
Formula: C35H40O19
MW: 764
ExactMass: 764.21637906
Comments: Parent=763.212
Splash: splash10-066r-0001090000-aeb489b7fba2efbb22b3
Num Peaks: 14
353.1056 85
377.1032 52
395.1177 174
396.1176 38
515.1577 999
516.1587 230
517.1622 43
539.1547 52
557.1689 553
558.1693 165
559.1720 43
581.1624 30
719.2305 66
720.2172 29

Name: Resveratrol
Synon: 5-[(E)-2-(4-hydroxyphenyl)ethenyl]benzene-1,3-diol
DB#: MSBNK-IPB_Halle-PB006262
InChIKey: LUKBXSAWLPMMSZ-OWOJBTEDSA-N
InChI: InChI=1S/C14H12O3/c15-12-5-3-10(4-6-12)1-2-11-7-13(16)9-14(17)8-11/h1-9,15-17H/b2-1+
SMILES: C1=CC(=CC=C1/C=C/C2=CC(=CC(=C2)O)O)O
Precursor_type: [M+H]+
Spectrum_type: MS2
Instrument_type: LC-ESI-QTOF
Instrument: micrOTOF-Q
Ion_mode: POSITIVE
Collision_energy: 15 eV
Formula: C14H12O3
MW: 228
ExactMass: 228.07864
Comments: Parent=-1
Splash: splash10-002r-0940000000-07826509d63ca5c6ed72
Num Peaks: 185
101.085 0
104.141 1
106.926 0
107.049 24
111.043 7
112.962 0
113.213 0
115.051 1
115.077 0
117.070 1
117.932 0
118.038 0
119.048 78
119.092 0
120.056 82
120.127 0
121.028 51
122.031 1
122.063 2
123.043 52
124.044 2
126.044 0
127.054 3
128.060 1
128.499 0
129.069 6
129.099 0
130.078 1
130.113 0
131.048 17
131.082 12
132.046 0
133.063 9
133.102 1
134.145 0
134.601 0
134.919 0
135.043 999
135.125 2
135.234 0
135.584 0
136.049 202
136.625 0
136.986 0
137.023 10
137.055 10
138.035 0
139.053 0
140.069 0
141.069 84
141.084 0
141.953 0
142.002 0
142.069 6
143.085 11
144.055 17
144.953 0
145.063 116
145.096 2
145.126 0
146.067 19
147.042 29
150.638 0
152.056 7
152.071 0
153.069 80
154.027 0
154.074 17
155.085 126
155.142 1
156.088 10
157.064 36
158.047 0
158.072 10
159.079 59
160.050 11
160.082 10
161.055 4
161.093 28
162.098 0
163.062 0
163.787 0
163.938 3
164.060 0
164.948 0
165.069 456
165.140 0
166.073 50
166.109 0
167.080 2
168.054 18
168.073 0
169.061 29
169.089 0
170.066 5
171.042 29
171.074 0
172.059 0
173.061 35
173.096 5
174.069 5
174.088 1
175.079 0
177.064 0
177.766 0
181.065 28
181.083 0
182.068 19
182.575 0
183.078 400
183.165 0
183.248 0
184.082 45
184.977 0
185.056 15
186.066 17
186.883 0
186.964 0
187.070 64
187.277 0
188.072 7
193.062 156
194.069 30
195.042 0
195.071 1
195.865 0
196.047 5
197.058 11
198.069 1
199.073 33
199.142 0
200.080 10
201.089 57
201.157 0
202.090 7
209.059 8
210.065 53
210.140 0
210.948 0
211.073 407
211.119 0
211.171 0
211.508 0
211.728 0
211.966 0
212.022 0
212.078 76
212.172 0
213.057 22
213.083 1
214.061 51
214.143 1
215.064 3
215.953 0
216.016 0
219.046 0
225.020 1
226.077 0
227.000 0
227.068 78
227.338 0
228.075 88
228.145 0
229.083 930
229.182 2
229.289 0
230.086 124
230.155 0
231.055 1
231.084 7
231.117 0
249.013 0
250.933 0
279.052 0
281.758 0
286.037 0
317.059 0
322.527 0
323.915 0
330.370 0
347.239 0
364.976 0
393.336 0
597.376 0
990.990 1

Name: Hesperidin methyl chalcone
Synon: (E)-3-(3-hydroxy-4-methoxyphenyl)-1-[2-hydroxy-6-methoxy-4-[(2S,3R,4S,5S,6R)-3,4,5-trihydroxy-6-[[(2R,3R,4R,5R,6S)-3,4,5-trihydroxy-6-methyloxan-2-yl]oxymethyl]oxan-2-yl]oxyphenyl]prop-2-en-1-one
DB#: MSBNK-IPB_Halle-PB006241
InChIKey: FDHNLHLOJLLXDH-JIYHLSBYSA-N
InChI: InChI=1S/C29H36O15/c1-12-22(33)24(35)26(37)28(42-12)41-11-20-23(34)25(36)27(38)29(44-20)43-14-9-17(32)21(19(10-14)40-3)15(30)6-4-13-5-7-18(39-2)16(31)8-13/h4-10,12,20,22-29,31-38H,11H2,1-3H3/b6-4+/t12-,20+,22-,23+,24+,25-,26+,27+,28+,29+/m0/s1
SMILES: C[C@H]1[C@@H]([C@H]([C@H]([C@@H](O1)OC[C@@H]2[C@H]([C@@H]([C@H]([C@@H](O2)OC3=CC(=C(C(=C3)OC)C(=O)/C=C/C4=CC(=C(C=C4)OC)O)O)O)O)O)O)O)O
Precursor_type: [M+H]+
Spectrum_type: MS2
Instrument_type: LC-ESI-QTOF
Instrument: micrOTOF-Q
Ion_mode: POSITIVE
Collision_energy: 10 eV
Formula: C29H36O15
MW: 624
ExactMass: 624.20542
Comments: Parent=-1
Splash: splash10-014i-0009500000-9bb3b149e8c64d780171
Num Peaks: 57
129.054 2
147.064 1
153.020 0
195.026 0
245.041 0
255.084 1
263.053 3
273.093 1
281.062 32
282.065 2
297.059 0
299.072 2
301.103 3
302.107 0
309.114 6
315.077 1
316.747 0
316.881 0
317.097 999
317.705 0
318.101 134
319.103 5
329.098 1
341.096 3
359.108 70
360.111 10
383.106 13
384.112 0
409.122 0
425.110 1
427.132 42
428.135 6
443.128 1
445.143 100
446.146 16
447.148 0
461.137 20
462.139 2
463.153 281
463.406 0
464.157 50
465.164 2
477.133 2
478.136 1
479.148 153
480.151 28
481.152 0
503.151 2
505.161 1
521.155 0
571.170 1
589.181 1
607.190 1
623.194 1
624.200 2
625.203 28
626.208 6

Name: NAD+
Synon: Nicotinamide dinucleotide
Synon: 1-[(2R,3R,4S,5R)-5-[[[[(2R,3S,4R,5R)-5-(6-aminopurin-9-yl)-3,4-dihydroxyoxolan-2-yl]methoxy-hydroxyphosphoryl]oxy-hydroxyphosphoryl]oxymethyl]-3,4-dihydroxyoxolan-2-yl]pyridin-1-ium-3-carboxylic acid
DB#: MSBNK-IPB_Halle-PB006001
InChIKey: BAWFJGJZGIEFAR-NNYOXOHSSA-O
InChI: InChI=1S/C21H27N7O14P2/c22-17-12-19(25-7-24-17)28(8-26-12)21-16(32)14(30)11(41-21)6-39-44(36,37)42-43(34,35)38-5-10-13(29)15(31)20(40-10)27-3-1-2-9(4-27)18(23)33/h1-4,7-8,10-11,13-16,20-21,29-32H,5-6H2,(H5-,22,23,24,25,33,34,35,36,37)/p+1/t10-,11-,13-,14-,15-,16-,20-,21-/m1/s1
SMILES: C1=CC(=C[N+](=C1)[C@H]2[C@@H]([C@@H]([C@H](O2)COP(=O)(O)OP(=O)(O)OC[C@@H]3[C@H]([C@H]([C@@H](O3)N4C=NC5=C(N=CN=C54)N)O)O)O)O)C(=O)N
Precursor_type: [M]+
Spectrum_type: MS2
Instrument_type: LC-ESI-QTOF
Instrument: micrOTOF-Q
Ion_mode: POSITIVE
Collision_energy: 10 eV
Formula: [C21H28N7O14P2]+
MW: 664
ExactMass: 664.11695
Comments: Parent=-1
Splash: splash10-03di-0000059000-1b20990e7cd9cd339b93
Num Peaks: 35
123.049 0
136.061 6
232.080 33
233.084 1
250.090 2
335.072 0
348.064 5
410.022 0
428.032 83
429.036 6
444.083 3
524.053 246
525.056 41
525.184 0
526.055 5
529.053 2
542.063 457
542.350 0
543.065 67
544.071 9
544.200 0
663.618 0
663.903 0
664.110 999
664.294 1
664.498 2
664.691 1
664.895 0
665.112 226
665.264 0
665.433 0
665.659 0
666.114 36
667.118 2
933.017 0

Name: (+/-) Salsolinol
Synon: 1-methyl-1,2,3,4-tetrahydroisoquinoline-6,7-diol
DB#: MSBNK-IPB_Halle-PB006021
InChIKey: IBRKLUSXDYATLG-UHFFFAOYSA-N
InChI: InChI=1S/C10H13NO2/c1-6-8-5-10(13)9(12)4-7(8)2-3-11-6/h4-6,11-13H,2-3H2,1H3
SMILES: CC1C2=CC(=C(C=C2CCN1)O)O
Precursor_type: [M+H]+
Spectrum_type: MS2
Instrument_type: LC-ESI-QTOF
Instrument: micrOTOF-Q
Ion_mode: POSITIVE
Collision_energy: 10 eV
Formula: C10H13NO2
MW: 179
ExactMass: 179.09463
Comments: Parent=-1
Splash: splash10-01q9-0900000000-2c29348adb1dba658757
Num Peaks: 27
115.053 28
116.057 2
117.069 31
118.071 2
123.042 0
127.053 3
133.061 1
134.093 0
135.044 4
135.078 4
137.058 56
138.062 3
145.063 396
146.067 33
147.069 0
148.051 0
151.073 32
152.077 1
161.057 0
163.074 865
164.077 69
165.078 1
179.970 0
180.100 999
180.444 0
181.103 82
182.106 1

Name: 5-methoxyindole-3-carbaldehyde
DB#: MSBNK-IPB_Halle-PB000504
InChIKey: TUWARWGEOHQXCO-UHFFFAOYSA-N
InChI: InChI=1S/C10H9NO2/c1-13-8-2-3-10-9(4-8)7(6-12)5-11-10/h2-6,11H,1H3
SMILES: COC1=CC2=C(C=C1)NC=C2C=O
Precursor_type: [M+H]+
Spectrum_type: MS2
Instrument_type: LC-ESI-QTOF
Instrument: API QSTAR Pulsar i
Ion_mode: POSITIVE
Collision_energy: 50 eV
Formula: C10H9NO2
MW: 175
ExactMass: 175.06333
Comments: Parent=-1
Splash: splash10-0ufr-5900000000-26df29ec1f047d619ef9
Num Peaks: 30
51.024 11
52.031 18
53.039 0
62.930 1
63.023 26
64.027 0
65.038 61
66.044 1
76.030 10
77.038 111
78.045 274
79.041 281
80.048 5
89.038 217
90.045 162
91.053 97
95.049 13
96.046 4
104.050 999
105.057 493
106.049 20
115.044 2
116.049 47
117.058 273
118.063 9
121.065 23
132.043 83
133.050 95
134.059 7
144.055 3

Name: Naringin
Synon: (2S)-7-[(2S,3R,4S,5S,6R)-4,5-dihydroxy-6-(hydroxymethyl)-3-[(2S,3R,4R,5R,6S)-3,4,5-trihydroxy-6-methyloxan-2-yl]oxyoxan-2-yl]oxy-5-hydroxy-2-(4-hydroxyphenyl)-2,3-dihydrochromen-4-one
DB#: MSBNK-IPB_Halle-PB005725
InChIKey: DFPMSGMNTNDNHN-ZPHOTFPESA-N
InChI: InChI=1S/C27H32O14/c1-10-20(32)22(34)24(36)26(37-10)41-25-23(35)21(33)18(9-28)40-27(25)38-13-6-14(30)19-15(31)8-16(39-17(19)7-13)11-2-4-12(29)5-3-11/h2-7,10,16,18,20-30,32-36H,8-9H2,1H3/t10-,16-,18+,20-,21+,22+,23-,24+,25+,26-,27+/m0/s1
SMILES: C[C@H]1[C@@H]([C@H]([C@H]([C@@H](O1)O[C@@H]2[C@H]([C@@H]([C@H](O[C@H]2OC3=CC(=C4C(=O)C[C@H](OC4=C3)C5=CC=C(C=C5)O)O)CO)O)O)O)O)O
Precursor_type: [M+H]+
Spectrum_type: MS2
Instrument_type: LC-ESI-QTOF
Instrument: micrOTOF-Q
Ion_mode: POSITIVE
Collision_energy: 25 eV
Formula: C27H32O14
MW: 580
ExactMass: 580.17921
Comments: Parent=-1
Splash: splash10-00di-0190000000-b7a2fe23c6221cfc6706
Num Peaks: 45
121.064 0
129.052 0
147.042 16
148.046 0
153.016 142
154.020 6
171.027 17
172.030 0
179.032 4
195.026 16
196.029 0
219.025 12
220.030 0
231.060 3
245.041 4
249.038 0
255.068 0
261.035 6
263.052 15
264.053 1
271.054 0
273.072 999
274.075 123
275.077 3
279.046 2
281.062 3
285.071 12
286.075 0
297.068 10
298.073 0
315.082 13
316.087 1
339.081 17
340.087 1
351.081 4
363.079 1
365.096 4
369.091 0
381.091 2
383.109 3
384.112 0
399.104 2
401.114 0
417.115 1
435.123 0

Name: Reserpine
Synon: methyl (1R,15S,17R,18R,19S,20S)-6,18-dimethoxy-17-[(3,4,5-trimethoxyphenyl)carbonyloxy]- 3,13-diazapentacyclo[11.8.0.02,10.04,9.015,20]henicosa-2(10),4(9),5,7-tetraene-19-carboxylate
DB#: MSBNK-IPB_Halle-PB005762
InChIKey: QEVHRUUCFGRFIF-MDEJGZGSSA-N
InChI: InChI=1S/C33H40N2O9/c1-38-19-7-8-20-21-9-10-35-16-18-13-27(44-32(36)17-11-25(39-2)30(41-4)26(12-17)40-3)31(42-5)28(33(37)43-6)22(18)15-24(35)29(21)34-23(20)14-19/h7-8,11-12,14,18,22,24,27-28,31,34H,9-10,13,15-16H2,1-6H3/t18-,22+,24-,27-,28+,31+/m1/s1
SMILES: CO[C@H]1[C@@H](C[C@@H]2CN3CCC4=C([C@H]3C[C@@H]2[C@@H]1C(=O)OC)NC5=C4C=CC(=C5)OC)OC(=O)C6=CC(=C(C(=C6)OC)OC)OC
Precursor_type: [M+H]+
Spectrum_type: MS2
Instrument_type: LC-ESI-QTOF
Instrument: micrOTOF-Q
Ion_mode: POSITIVE
Collision_energy: 20 eV
Formula: C33H40N2O9
MW: 608
ExactMass: 608.27338
Comments: Parent=-1
Splash: splash10-0a4i-0002009000-f6df1d086abaff8888d5
Num Peaks: 35
174.089 8
192.100 0
195.062 51
196.066 2
215.115 1
224.125 2
236.125 9
333.153 0
336.154 1
348.156 0
354.163 0
365.180 16
366.179 2
368.174 4
369.176 0
380.182 1
397.207 239
398.210 41
399.209 0
413.203 1
434.176 1
436.191 8
437.192 0
448.190 27
449.194 3
577.246 10
578.249 2
591.262 0
592.251 0
608.793 0
609.273 999
609.853 0
609.946 0
610.276 255
611.279 12

Name: Marchantin G 3
Synon: Marchantin G
Synon: 4,5,17-trihydroxy-2,15-dioxapentacyclo[22.2.2.13,7.110,14.016,21]triaconta-1(26),3(30),4,6,10(29),11,13,16(21),17,19,24,27-dodecaen-8-one
DB#: MSBNK-IPB_Halle-PB010401
InChIKey: CUIZSIJMLPQKRE-UHFFFAOYSA-N
InChI: InChI=1S/C28H22O6/c29-23-6-2-4-19-10-7-17-8-11-21(12-9-17)33-26-16-20(15-25(31)27(26)32)24(30)14-18-3-1-5-22(13-18)34-28(19)23/h1-6,8-9,11-13,15-16,29,31-32H,7,10,14H2
SMILES: C1CC2=C(C(=CC=C2)O)OC3=CC=CC(=C3)CC(=O)C4=CC(=C(C(=C4)O)O)OC5=CC=C1C=C5
Precursor_type: [M+H]+
Spectrum_type: MS2
PrecursorMZ: 455.1489
Instrument_type: LC-ESI-QTOF
Instrument: Bruker MicrOTOF-Q
Ion_mode: POSITIVE
Collision_energy: 31.6361675
Formula: C28H22O6
MW: 454
ExactMass: 454.142
Comments: Parent=455.1489
Splash: splash10-004i-0090000000-157e88105b8e23c1ed78
Num Peaks: 104
135.04 3
136.05 1
139.03 1
141.07 2
145.1 4
151.05 2
155.08 7
159.08 5
161.06 2
164.07 12
167.08 2
168.06 3
169.06 5
174.1 2
179.09 4
180.08 5
181.07 10
182.07 5
183.08 33
184.08 9
186.07 5
192.09 7
193.09 3
194.07 3
195.08 5
196.07 11
197.06 19
199.07 21
201.09 13
203.18 4
207.08 3
208.09 4
209.06 11
210.07 14
211.08 101
212.08 38
213.08 60
215.07 93
216.07 11
218.07 2
221.06 5
224.08 10
225.08 37
226.06 254
227.07 230
228.07 50
229.09 999
230.09 156
231.09 12
236.1 3
237.09 4
239.07 43
240.07 34
241.08 51
242.08 24
243.07 4
244.09 3
251.08 2
253.08 27
254.09 17
255.09 13
256.09 10
263.07 2
266.12 1
268.1 7
269.1 4
271.1 4
280.13 15
285.1 3
287.11 4
290.15 2
291.13 3
307.11 3
313.09 3
315.11 4
316.1 6
317.11 12
318.11 12
319.13 48
320.13 15
330.11 9
333.11 5
342.12 1
345.08 6
347.1 11
348.11 14
349.11 15
350.11 4
351.12 2
355.14 2
360.09 2
363.09 16
367.13 4
373.15 1
383.14 2
398.17 7
408.16 13
409.15 9
410.16 5
413.14 2
425.14 3
453.13 62
454.16 40
455.15 72

Name: Apigenin O-glucoside malonylated
DB#: MSBNK-IPB_Halle-PN000073
InChI: N/A
SMILES: N/A
Precursor_type: [M+H]+
Spectrum_type: MS2
PrecursorMZ: 519.114
Instrument_type: ESI-TOF
Instrument: micrOTOF-Q
Ion_mode: POSITIVE
Collision_energy: 15 eV
Formula: C24H22O13
MW: 518
ExactMass: 518.106040764
Comments: Parent=519.114
Splash: splash10-00di-0090030000-d0a89ea2f7a6d523311b
Num Peaks: 4
271.0602 999
272.0628 130
519.1157 329
520.1182 109

Name: S,R-Noscapine
Synon: (3S)-6,7-dimethoxy-3-[(5R)-4-methoxy-6-methyl-7,8-dihydro-5H-[1,3]dioxolo[4,5-g]isoquinolin-5-yl]-3H-2-benzofuran-1-one
DB#: MSBNK-IPB_Halle-PB005907
InChIKey: AKNNEGZIBPJZJG-MSOLQXFVSA-N
InChI: InChI=1S/C22H23NO7/c1-23-8-7-11-9-14-20(29-10-28-14)21(27-4)15(11)17(23)18-12-5-6-13(25-2)19(26-3)16(12)22(24)30-18/h5-6,9,17-18H,7-8,10H2,1-4H3/t17-,18+/m1/s1
SMILES: CN1CCC2=CC3=C(C(=C2[C@@H]1[C@@H]4C5=C(C(=C(C=C5)OC)OC)C(=O)O4)OC)OCO3
Precursor_type: [M+H]+
Spectrum_type: MS2
Instrument_type: LC-ESI-QTOF
Instrument: micrOTOF-Q
Ion_mode: POSITIVE
Collision_energy: 20 eV
Formula: C22H23NO7
MW: 413
ExactMass: 413.14745
Comments: Parent=-1
Splash: splash10-00di-0096100000-7c40f609e74e2b7e670c
Num Peaks: 92
165.053 0
179.068 28
180.072 2
191.067 0
193.050 0
204.065 0
205.071 18
206.078 26
207.080 1
210.145 0
218.079 7
219.085 10
220.094 999
221.098 105
222.100 2
236.088 0
248.089 14
249.089 1
263.066 0
264.077 0
265.075 0
276.072 0
277.080 1
279.090 0
280.071 1
281.083 0
291.061 1
292.069 3
293.073 1
294.080 0
295.091 6
296.098 1
297.104 1
302.053 0
303.062 0
304.068 0
305.076 2
306.061 1
307.087 7
308.093 4
309.091 1
310.079 2
312.094 3
313.102 1
319.059 0
320.066 2
321.073 4
322.079 10
323.087 42
324.093 22
325.101 17
326.103 1
327.116 4
332.063 1
334.079 17
335.086 14
336.091 3
337.100 4
338.085 5
339.114 4
340.103 0
341.097 2
343.113 0
348.091 0
349.099 1
350.074 38
351.079 8
352.091 17
353.097 383
354.100 62
355.111 13
356.121 1
363.108 0
364.104 0
365.097 101
366.099 20
367.111 4
368.138 1
371.107 5
372.112 0
378.128 7
379.123 1
381.116 17
382.119 2
383.107 11
384.113 1
396.139 22
397.142 3
399.127 0
414.149 217
415.153 44
416.156 1

Name: Luteolin
Synon: Luteolol
Synon: Flacitran
DB#: MSBNK-IPB_Halle-PN000112
InChIKey: IQPNAANSBPBGFQ-UHFFFAOYSA-N
InChI: InChI=1S/C15H10O6/c16-8-4-11(19)15-12(20)6-13(21-14(15)5-8)7-1-2-9(17)10(18)3-7/h1-6,16-19H
SMILES: OC1=CC(O)=C2C(=O)C=C(OC2(=C1))C3=CC=C(O)C(O)=C3
Precursor_type: [M-H]-
Spectrum_type: MS2
PrecursorMZ: 285.036
Instrument_type: ESI-TOF
Instrument: micrOTOF-Q
Ion_mode: NEGATIVE
Collision_energy: 25 eV
Formula: C15H10O6
MW: 286
ExactMass: 286.04773804
Comments: Parent=285.036
Splash: splash10-001i-0900000000-11d998527dd221ea8be3
Num Peaks: 12
105.034 23
107.012 55
115.017 18
121.028 26
132.019 113
133.027 999
134.030 69
149.026 30
151.001 47
175.038 42
199.039 17
201.017 24

Name: Tyrosine
Synon: 2-amino-3-(4-hydroxyphenyl)propanoic acid
DB#: MSBNK-IPB_Halle-PB000411
InChIKey: OUYCCCASQSFEME-UHFFFAOYSA-N
InChI: InChI=1S/C9H11NO3/c10-8(9(12)13)5-6-1-3-7(11)4-2-6/h1-4,8,11H,5,10H2,(H,12,13)
SMILES: C1=CC(=CC=C1CC(C(=O)O)N)O
Precursor_type: [M+H]+
Spectrum_type: MS2
Instrument_type: LC-ESI-QTOF
Instrument: API QSTAR Pulsar i
Ion_mode: POSITIVE
Collision_energy: 15 eV
Formula: C9H11NO3
MW: 181
ExactMass: 181.07389
Comments: Parent=-1
Splash: splash10-014r-0900000000-c823b2767ec56c4ff5eb
Num Peaks: 6
119.052 43
123.046 101
136.075 821
147.043 84
165.056 999
182.082 357

Name: Oxycodone
Synon: Morphinan-6-one, 4,5alpha-epoxy-14-hydroxy-3-methoxy-17-methyl-
DB#: MSBNK-IPB_Halle-PB002101
InChIKey: BRUQQQPBMZOVGD-UHFFFAOYSA-N
InChI: InChI=1S/C18H21NO4/c1-19-8-7-17-14-10-3-4-12(22-2)15(14)23-16(17)11(20)5-6-18(17,21)13(19)9-10/h3-4,13,16,21H,5-9H2,1-2H3
SMILES: CN1CCC23C4C(=O)CCC2(C1CC5=C3C(=C(C=C5)OC)O4)O
Precursor_type: [M+H]+
Spectrum_type: MS2
Instrument_type: LC-ESI-QQ
Instrument: TSQ 7000
Ion_mode: POSITIVE
Collision_energy: 20 eV
Formula: C18H21NO4
MW: 315
ExactMass: 315.14706
Comments: Parent=-1
Splash: splash10-014i-0049000000-952a2d018b7dd5e3eb70
Num Peaks: 17
70.000 2
175.000 0
187.000 3
197.000 1
202.000 0
224.000 1
229.000 0
241.000 14
242.000 1
252.000 0
256.000 13
257.000 1
280.000 1
298.000 481
299.000 11
316.000 999
317.000 7

Name: Biochanin A
Synon: 5,7-Dihydroxy-4'-methoxyisoflavone
Synon: 4'-Methylgenistein
DB#: MSBNK-IPB_Halle-PN000108
InChIKey: WUADCCWRTIWANL-UHFFFAOYSA-N
InChI: InChI=1S/C16H12O5/c1-20-11-4-2-9(3-5-11)12-8-21-14-7-10(17)6-13(18)15(14)16(12)19/h2-8,17-18H,1H3
SMILES: COC=1C=CC(=CC=1)C2=COC3=CC(O)=CC(O)=C3(C2(=O))
Precursor_type: [M-H]-
Spectrum_type: MS2
PrecursorMZ: 283.058
Instrument_type: ESI-TOF
Instrument: micrOTOF-Q
Ion_mode: NEGATIVE
Collision_energy: 25 eV
Formula: C16H12O5
MW: 284
ExactMass: 284.068473484
Comments: Parent=283.058
Splash: splash10-02ti-0290000000-c0e4bdc7acf55c37ed1b
Num Peaks: 51
91.016 13
104.023 28
107.011 20
132.019 304
133.024 29
134.034 25
135.007 62
142.039 15
143.047 10
147.008 18
151.001 31
154.041 31
155.046 8
156.051 10
166.042 13
167.047 73
168.055 32
170.035 10
171.043 10
172.046 7
179.047 14
180.054 17
182.035 12
183.042 62
184.051 70
194.034 7
195.042 162
196.048 72
197.046 8
198.035 17
199.036 18
200.047 10
210.030 11
211.038 820
212.041 174
213.043 18
222.027 10
223.038 163
224.045 78
225.041 9
226.024 50
227.030 10
239.031 999
240.039 183
241.041 33
250.025 10
251.033 9
267.026 791
268.033 409
269.036 47
270.041 8

Name: Harman
Synon: 1-methyl-9H-pyrido[3,4-b]indole
DB#: MSBNK-IPB_Halle-PB000886
InChIKey: PSFDQSOCUJVVGF-UHFFFAOYSA-N
InChI: InChI=1S/C12H10N2/c1-8-12-10(6-7-13-8)9-4-2-3-5-11(9)14-12/h2-7,14H,1H3
SMILES: CC1=NC=CC2=C1NC3=CC=CC=C23
Precursor_type: [M+H]+
Spectrum_type: MS2
Instrument_type: LC-ESI-QTOF
Instrument: API QSTAR Pulsar i
Ion_mode: POSITIVE
Collision_energy: 15 eV
Formula: C12H10N2
MW: 182
ExactMass: 182.08440
Comments: Parent=-1
Splash: splash10-001i-0900000000-8f767ae14c8cb390abd4
Num Peaks: 3
183.092 999
183.201 17
184.105 11

Name: Noscapine
Synon: (3S)-6,7-dimethoxy-3-[(5R)-4-methoxy-6-methyl-7,8-dihydro-5H-[1,3]dioxolo[4,5-g]isoquinolin-5-yl]-3H-2-benzofuran-1-one
DB#: MSBNK-IPB_Halle-PB002021
InChIKey: AKNNEGZIBPJZJG-MSOLQXFVSA-N
InChI: InChI=1S/C22H23NO7/c1-23-8-7-11-9-14-20(29-10-28-14)21(27-4)15(11)17(23)18-12-5-6-13(25-2)19(26-3)16(12)22(24)30-18/h5-6,9,17-18H,7-8,10H2,1-4H3/t17-,18+/m1/s1
SMILES: CN1CCC2=CC3=C(C(=C2[C@@H]1[C@@H]4C5=C(C(=C(C=C5)OC)OC)C(=O)O4)OC)OCO3
Precursor_type: [M+H]+
Spectrum_type: MS2
Instrument_type: LC-ESI-QQ
Instrument: TSQ 7000
Ion_mode: POSITIVE
Collision_energy: 25 eV
Formula: C22H23NO7
MW: 413
ExactMass: 413.14745
Comments: Parent=-1
Splash: splash10-00di-0094200000-0bdf0a92603c3eb703d7
Num Peaks: 63
44.000 0
165.000 0
179.000 42
180.000 0
191.000 0
193.000 0
205.000 3
206.000 24
209.000 0
218.000 3
219.000 7
220.000 999
221.000 4
236.000 0
248.000 11
249.000 0
280.000 0
292.000 0
295.000 2
304.000 0
305.000 0
306.000 1
307.000 4
308.000 2
309.000 1
310.000 0
312.000 1
320.000 0
321.000 0
322.000 4
323.000 17
324.000 20
325.000 6
326.000 0
327.000 1
334.000 11
335.000 6
336.000 0
337.000 3
338.000 5
339.000 0
341.000 0
349.000 0
350.000 29
351.000 1
352.000 15
353.000 241
354.000 3
355.000 4
363.000 0
365.000 61
366.000 7
367.000 0
368.000 1
371.000 1
378.000 4
381.000 12
383.000 5
396.000 13
397.000 0
399.000 0
414.000 240
415.000 4

Name: (-)-Epicatechin
Synon: (2R,3R)-2-(3,4-dihydroxyphenyl)-3,4-dihydro-2H-chromene-3,5,7-triol
DB#: MSBNK-IPB_Halle-PB006302
InChIKey: PFTAWBLQPZVEMU-UKRRQHHQSA-N
InChI: InChI=1S/C15H14O6/c16-8-4-11(18)9-6-13(20)15(21-14(9)5-8)7-1-2-10(17)12(19)3-7/h1-5,13,15-20H,6H2/t13-,15-/m1/s1
SMILES: C1[C@H]([C@H](OC2=CC(=CC(=C21)O)O)C3=CC(=C(C=C3)O)O)O
Precursor_type: [M+H]+
Spectrum_type: MS2
Instrument_type: LC-ESI-QTOF
Instrument: micrOTOF-Q
Ion_mode: POSITIVE
Collision_energy: 20 eV
Formula: C15H14O6
MW: 290
ExactMass: 290.07904
Comments: Parent=-1
Splash: splash10-000i-0900000000-eeb1eab35fa4cdf4deb3
Num Peaks: 68
111.040 1
115.053 4
119.048 23
120.052 0
121.029 0
123.043 351
124.046 21
125.055 0
127.038 4
131.051 2
133.025 0
133.064 6
135.045 7
137.025 7
137.054 9
138.956 0
139.038 999
139.235 0
139.282 0
140.042 56
141.051 0
143.048 44
144.049 3
145.068 2
147.043 280
148.047 19
149.059 3
151.040 20
151.073 4
153.053 15
157.063 0
159.041 7
161.058 184
162.060 10
163.039 24
164.044 0
165.053 66
165.110 0
166.055 4
169.048 9
171.048 1
171.079 0
172.048 0
177.053 30
178.057 1
179.069 93
180.072 7
181.054 6
185.059 1
187.072 1
189.052 55
190.057 3
199.077 1
203.069 7
205.084 5
206.087 0
207.063 178
208.065 12
213.052 5
227.063 4
230.053 0
231.063 2
244.941 0
245.083 3
249.071 2
255.061 3
258.050 0
273.072 5

Name: Sanguinarine
Synon: [1,3]Benzodioxolo[5,6-c]-1,3-dioxolo[4,5-i]phenanthridinium, 13-methyl-
DB#: MSBNK-IPB_Halle-PB002202
InChIKey: INVGWHRKADIJHF-UHFFFAOYSA-N
InChI: InChI=1S/C20H14NO4/c1-21-8-15-12(4-5-16-20(15)25-10-22-16)13-3-2-11-6-17-18(24-9-23-17)7-14(11)19(13)21/h2-8H,9-10H2,1H3/q+1
SMILES: C[N+]1=C2C(=C3C=CC4=C(C3=C1)OCO4)C=CC5=CC6=C(C=C52)OCO6
Precursor_type: [M]+
Spectrum_type: MS2
Instrument_type: LC-ESI-QQ
Instrument: TSQ 7000
Ion_mode: POSITIVE
Collision_energy: 40 eV
Formula: [C20H14NO4]+
MW: 332
ExactMass: 332.09228
Comments: Parent=-1
Splash: splash10-01ba-0093000000-8e78de64c96cdc678a00
Num Peaks: 124
26.000 0
34.000 1
40.000 0
41.000 0
42.000 1
47.000 0
52.000 2
63.000 0
75.000 1
76.000 0
77.000 0
94.000 0
98.000 0
101.000 0
118.000 0
120.000 2
121.000 0
130.000 0
131.000 0
138.000 1
144.000 1
153.000 0
162.000 0
164.000 0
165.000 1
175.000 0
176.000 2
177.000 7
178.000 4
179.000 7
180.000 1
181.000 5
188.000 5
189.000 73
190.000 18
191.000 10
192.000 0
194.000 0
197.000 0
200.000 0
201.000 17
202.000 17
203.000 32
204.000 29
205.000 24
206.000 3
207.000 4
213.000 0
214.000 14
215.000 77
216.000 245
217.000 104
218.000 333
219.000 32
220.000 11
221.000 1
224.000 1
226.000 7
227.000 15
228.000 37
229.000 14
230.000 9
231.000 37
232.000 42
233.000 102
234.000 10
235.000 4
240.000 3
241.000 1
242.000 2
243.000 5
244.000 289
245.000 51
246.000 540
247.000 160
248.000 80
249.000 1
251.000 0
256.000 15
257.000 29
258.000 19
259.000 97
260.000 53
261.000 112
262.000 12
263.000 1
267.000 0
270.000 1
272.000 42
273.000 60
274.000 999
275.000 202
276.000 119
277.000 0
280.000 0
284.000 2
285.000 1
286.000 22
287.000 73
288.000 78
289.000 112
290.000 13
291.000 1
292.000 2
294.000 0
300.000 3
301.000 3
302.000 124
303.000 56
304.000 292
305.000 5
308.000 0
314.000 10
315.000 6
316.000 109
317.000 702
318.000 17
321.000 0
330.000 108
331.000 5
332.000 437
333.000 17
336.000 1
347.000 0

Name: Naringenin chalcone
Synon: 3-(4-hydroxyphenyl)-1-(2,4,6-trihydroxyphenyl)prop-2-en-1-one
DB#: MSBNK-IPB_Halle-PB002407
InChIKey: YQHMWTPYORBCMF-ZZXKWVIFSA-N
InChI: InChI=1S/C15H12O5/c16-10-4-1-9(2-5-10)3-6-12(18)15-13(19)7-11(17)8-14(15)20/h1-8,16-17,19-20H/b6-3+
SMILES: C1=CC(=CC=C1/C=C/C(=O)C2=C(C=C(C=C2O)O)O)O
Precursor_type: [M-H]-
Spectrum_type: MS2
Instrument_type: LC-ESI-QTOF
Instrument: API QSTAR Pulsar i
Ion_mode: NEGATIVE
Collision_energy: 40 eV
Formula: C15H12O5
MW: 272
ExactMass: 272.06847
Comments: Parent=-1
Splash: splash10-014i-2900000000-37be5bc5a9f1bc38d302
Num Peaks: 20
63.025 156
65.004 224
83.013 115
93.034 75
107.016 355
108.024 12
109.031 12
117.035 36
119.050 999
121.029 15
133.030 9
137.025 12
143.052 43
145.031 41
151.004 233
161.061 38
165.019 23
177.017 31
185.057 28
187.036 87

Name: 1-methoxyindole-3-carbaldehyde
DB#: MSBNK-IPB_Halle-PB000531
InChIKey: NFGIENSPALNOON-UHFFFAOYSA-N
InChI: InChI=1S/C10H9NO2/c1-13-11-6-8(7-12)9-4-2-3-5-10(9)11/h2-7H,1H3
SMILES: CON1C=C(C2=CC=CC=C21)C=O
Precursor_type: [M+H]+
Spectrum_type: MS2
PrecursorMZ: 176.07115
Instrument_type: LC-ESI-QTOF
Instrument: API QSTAR Pulsar i
Ion_mode: POSITIVE
Collision_energy: 15 eV
Formula: C10H9NO2
MW: 175
ExactMass: 175.06333
Comments: Parent=176.07115
Splash: splash10-004i-0900000000-9ba1a14e0bf669985c32
Num Peaks: 7
116.050 101
117.057 45
133.051 347
145.053 31
148.075 208
161.047 355
176.067 999

Name: Thebaine
Synon: Morphinan, 6,7,8,14-tetradehydro-4,5-epoxy-3,6-dimethoxy-17-methyl-, (5.alpha.)-
DB#: MSBNK-IPB_Halle-PB003621
InChIKey: FQXXSQDCDRQNQE-UHFFFAOYSA-N
InChI: InChI=1S/C19H21NO3/c1-20-9-8-19-12-5-7-15(22-3)18(19)23-17-14(21-2)6-4-11(16(17)19)10-13(12)20/h4-7,13,18H,8-10H2,1-3H3
SMILES: CN1CCC23C4C(=CC=C2C1CC5=C3C(=C(C=C5)OC)O4)OC
Precursor_type: [M+H]+
Spectrum_type: MS2
Instrument_type: LC-ESI-QQ
Instrument: TSQ 7000
Ion_mode: POSITIVE
Collision_energy: 20 eV
Formula: C19H21NO3
MW: 311
ExactMass: 311.15214
Comments: Parent=-1
Splash: splash10-0bt9-8095000000-65e3965b2bd1c1efef99
Num Peaks: 58
30.000 0
32.000 0
43.000 0
44.000 7
56.000 0
57.000 0
58.000 999
177.000 0
178.000 0
193.000 0
195.000 2
203.000 0
205.000 0
206.000 0
207.000 0
209.000 0
213.000 1
217.000 1
218.000 17
219.000 2
220.000 0
221.000 65
222.000 2
223.000 46
224.000 3
225.000 0
227.000 1
231.000 0
232.000 1
234.000 8
235.000 0
236.000 0
237.000 36
238.000 1
239.000 1
240.000 1
241.000 0
248.000 1
249.000 217
250.000 21
251.000 47
252.000 6
253.000 6
254.000 6
255.000 69
256.000 3
263.000 1
265.000 2
266.000 248
267.000 5
269.000 17
280.000 21
281.000 185
282.000 12
283.000 3
297.000 3
312.000 632
313.000 16

Name: Biochanin A 8-C-glucoside
DB#: MSBNK-IPB_Halle-PN000022
InChIKey: ZLFFEHIHCGIVET-HOSHUCMYSA-N
InChI: InChI=1S/C22H22O10/c1-30-10-4-2-9(3-5-10)11-8-31-21-15(17(11)26)12(24)6-13(25)16(21)22-20(29)19(28)18(27)14(7-23)32-22/h2-6,8,14,18-20,22-25,27-29H,7H2,1H3/t14-,18-,19+,20-,22?/m1/s1
SMILES: COC1=CC=C(C=C1)C2=COC3=C(C2=O)C(=CC(=C3C4[C@@H]([C@H]([C@@H]([C@H](O4)CO)O)O)O)O)O
Precursor_type: [M-H]-
Spectrum_type: MS2
PrecursorMZ: 445.118
Instrument_type: ESI-TOF
Instrument: micrOTOF-Q
Ion_mode: NEGATIVE
Collision_energy: 25 eV
Formula: C22H22O10
MW: 446
ExactMass: 446.121296904
Comments: Parent=445.118
Splash: splash10-004i-0049000000-c8fe6ddd06099e80103e
Num Peaks: 20
149.028 21
179.031 4
217.053 4
257.081 5
281.059 7
282.053 358
283.057 55
284.061 9
297.077 196
298.083 29
307.060 16
310.042 6
325.071 999
326.074 131
327.082 16
337.071 18
355.084 40
356.087 7
367.083 8
445.116 15

Name: Xanthohumol
Synon: (E)-1-[2,4-dihydroxy-6-methoxy-3-(3-methylbut-2-enyl)phenyl]-3-(4-hydroxyphenyl)prop-2-en-1-one
DB#: MSBNK-IPB_Halle-PB004943
InChIKey: ORXQGKIUCDPEAJ-YRNVUSSQSA-N
InChI: InChI=1S/C21H22O5/c1-13(2)4-10-16-18(24)12-19(26-3)20(21(16)25)17(23)11-7-14-5-8-15(22)9-6-14/h4-9,11-12,22,24-25H,10H2,1-3H3/b11-7+
SMILES: CC(=CCC1=C(C(=C(C=C1O)OC)C(=O)/C=C/C2=CC=C(C=C2)O)O)C
Precursor_type: [M-H]-
Spectrum_type: MS2
Instrument_type: LC-ESI-QQ
Instrument: TSQ QUANTUM AM
Ion_mode: NEGATIVE
Collision_energy: 25 eV
Formula: C21H22O5
MW: 354
ExactMass: 354.14672
Comments: Parent=-1
Splash: splash10-0159-0981000000-c78fd55b14d98033f180
Num Peaks: 98
97.000 2
98.000 0
119.000 999
120.000 0
121.000 4
129.000 2
131.000 4
132.000 0
133.000 43
134.000 1
135.000 1
137.000 2
138.000 7
139.000 0
145.000 35
146.000 4
147.000 0
148.000 5
149.000 0
150.000 17
151.000 2
157.000 13
159.000 36
160.000 2
161.000 17
162.000 9
163.000 93
164.000 5
165.000 129
169.000 0
171.000 1
173.000 29
174.000 18
175.000 179
176.000 16
177.000 14
182.000 0
185.000 0
187.000 3
189.000 211
190.000 104
191.000 9
192.000 13
197.000 2
199.000 5
200.000 2
201.000 13
203.000 74
204.000 27
205.000 19
207.000 16
208.000 2
209.000 5
211.000 2
213.000 3
217.000 11
218.000 250
219.000 10
223.000 0
225.000 0
231.000 9
232.000 24
233.000 910
238.000 0
239.000 2
241.000 10
242.000 4
247.000 57
251.000 15
253.000 9
254.000 0
255.000 5
257.000 0
259.000 1
265.000 1
266.000 0
267.000 5
268.000 0
269.000 5
270.000 21
277.000 19
281.000 3
282.000 1
283.000 66
291.000 0
293.000 8
295.000 239
296.000 9
297.000 0
309.000 7
310.000 16
311.000 31
321.000 1
323.000 20
325.000 5
337.000 2
338.000 2
353.000 204

Name: Chrysoeriol 7-O-glucoside
DB#: MSBNK-IPB_Halle-PN000018
InChIKey: GAMYVSCDDLXAQW-MIUGBVLSSA-N
InChI: InChI=1S/C22H22O11/c1-30-15-4-9(2-3-11(15)24)14-7-13(26)18-12(25)5-10(6-16(18)32-14)31-22-21(29)20(28)19(27)17(8-23)33-22/h2-7,17,19-25,27-29H,8H2,1H3/t17-,19-,20+,21-,22-/m1/s1
SMILES: COC1=C(C=CC(=C1)C2=CC(=O)C3=C(C=C(C=C3O2)O[C@H]4[C@@H]([C@H]([C@@H]([C@H](O4)CO)O)O)O)O)O
Precursor_type: [M+H]+
Spectrum_type: MS2
PrecursorMZ: 463.124
Instrument_type: ESI-TOF
Instrument: micrOTOF-Q
Ion_mode: POSITIVE
Collision_energy: 15 eV
Formula: C22H22O11
MW: 462
ExactMass: 462.116211524
Comments: Parent=463.124
Splash: splash10-0udi-0009000000-817767554ca55c391d66
Num Peaks: 4
301.0719 999
302.0755 129
303.0793 19
463.1224 18

Name: Xanthotoxin
Synon: 9-methoxyfuro[3,2-g]chromen-7-one
DB#: MSBNK-IPB_Halle-PB006163
InChIKey: QXKHYNVANLEOEG-UHFFFAOYSA-N
InChI: InChI=1S/C12H8O4/c1-14-12-10-8(4-5-15-10)6-7-2-3-9(13)16-11(7)12/h2-6H,1H3
SMILES: COC1=C2C(=CC3=C1OC=C3)C=CC(=O)O2
Precursor_type: [M+H]+
Spectrum_type: MS2
Instrument_type: LC-ESI-QTOF
Instrument: micrOTOF-Q
Ion_mode: POSITIVE
Collision_energy: 15 eV
Formula: C12H8O4
MW: 216
ExactMass: 216.04226
Comments: Parent=-1
Splash: splash10-0gb9-0290000000-2e17076c991ea61ced1a
Num Peaks: 35
115.053 7
117.069 0
118.040 2
129.032 0
130.040 2
131.048 9
133.063 2
143.049 3
145.063 6
146.035 11
147.040 0
157.027 9
158.035 16
159.040 1
161.058 179
162.061 14
171.043 0
173.057 41
174.029 128
175.033 10
185.021 71
186.025 7
189.053 84
190.056 7
201.017 1
201.912 0
202.024 783
202.253 0
203.027 77
204.029 3
216.039 0
216.893 0
217.047 999
218.050 106
219.053 5

Name: Erythromycin
Synon: (2R,3R,4S,5R,8R,9S,10S,11R,12R,14R)-11-[(2S,3R,4S,6R)-4-(dimethylamino)-3-hydroxy-6-methyloxan-2-yl]oxy-5-ethyl-3,4,12-trihydroxy-9-[(2R,4R,5S,6S)-5-hydroxy-4-methoxy-4,6-dimethyloxan-2-yl]oxy-2,4,8,10,12,14-hexamethyl-6-oxacyclotetradecane-1,7-dione
DB#: MSBNK-IPB_Halle-PB005804
InChIKey: ULGZDMOVFRHVEP-RWJQBGPGSA-N
InChI: InChI=1S/C37H67NO13/c1-14-25-37(10,45)30(41)20(4)27(39)18(2)16-35(8,44)32(51-34-28(40)24(38(11)12)15-19(3)47-34)21(5)29(22(6)33(43)49-25)50-26-17-36(9,46-13)31(42)23(7)48-26/h18-26,28-32,34,40-42,44-45H,14-17H2,1-13H3/t18-,19-,20+,21+,22-,23+,24+,25-,26+,28-,29+,30-,31+,32-,34+,35-,36-,37-/m1/s1
SMILES: CC[C@@H]1[C@@]([C@@H]([C@H](C(=O)[C@@H](C[C@@]([C@@H]([C@H]([C@@H]([C@H](C(=O)O1)C)O[C@H]2C[C@@]([C@H]([C@@H](O2)C)O)(C)OC)C)O[C@H]3[C@@H]([C@H](C[C@H](O3)C)N(C)C)O)(C)O)C)C)O)(C)O
Precursor_type: [M+H]+
Spectrum_type: MS2
Instrument_type: LC-ESI-QTOF
Instrument: micrOTOF-Q
Ion_mode: POSITIVE
Collision_energy: 30 eV
Formula: C37H67NO13
MW: 733
ExactMass: 733.46124
Comments: Parent=-1
Splash: splash10-0a4i-0900020000-595b522fe60bb668626a
Num Peaks: 58
116.071 5
116.105 7
123.079 6
127.074 4
140.105 0
158.005 0
158.116 999
159.119 81
160.121 3
176.126 5
177.127 0
233.151 42
234.154 4
245.187 0
251.161 1
263.197 0
269.172 0
272.182 4
284.182 1
286.199 2
289.176 9
290.180 0
307.187 8
308.190 0
316.209 2
325.197 7
326.199 0
342.224 16
343.226 2
347.218 4
348.220 0
360.232 0
365.228 11
366.231 1
383.238 5
384.243 0
408.269 28
409.273 6
444.291 1
464.295 11
465.299 2
482.306 3
483.310 0
500.315 2
522.337 44
523.340 12
524.342 0
540.348 29
541.350 8
542.353 0
558.358 44
559.361 13
560.363 1
574.355 0
576.368 153
577.372 46
578.373 6
734.459 1

Name: o-Anisic acid
Synon: 2-methoxybenzoic acid
DB#: MSBNK-IPB_Halle-PB006062
InChIKey: ILUJQPXNXACGAN-UHFFFAOYSA-N
InChI: InChI=1S/C8H8O3/c1-11-7-5-3-2-4-6(7)8(9)10/h2-5H,1H3,(H,9,10)
SMILES: COC1=CC=CC=C1C(=O)O
Precursor_type: [M+H]+
Spectrum_type: MS2
Instrument_type: LC-ESI-QTOF
Instrument: micrOTOF-Q
Ion_mode: POSITIVE
Collision_energy: 15 eV
Formula: C8H8O3
MW: 152
ExactMass: 152.04734
Comments: Parent=-1
Splash: splash10-000i-0900000000-6aea479dc8cb85208bc7
Num Peaks: 5
120.019 7
133.028 0
135.042 999
136.046 66
137.047 0

Name: Sanguinarine
Synon: [1,3]Benzodioxolo[5,6-c]-1,3-dioxolo[4,5-i]phenanthridinium, 13-methyl-
DB#: MSBNK-IPB_Halle-PB002201
InChIKey: INVGWHRKADIJHF-UHFFFAOYSA-N
InChI: InChI=1S/C20H14NO4/c1-21-8-15-12(4-5-16-20(15)25-10-22-16)13-3-2-11-6-17-18(24-9-23-17)7-14(11)19(13)21/h2-8H,9-10H2,1H3/q+1
SMILES: C[N+]1=C2C(=C3C=CC4=C(C3=C1)OCO4)C=CC5=CC6=C(C=C52)OCO6
Precursor_type: [M]+
Spectrum_type: MS2
Instrument_type: LC-ESI-QQ
Instrument: TSQ 7000
Ion_mode: POSITIVE
Collision_energy: 35 eV
Formula: [C20H14NO4]+
MW: 332
ExactMass: 332.09228
Comments: Parent=-1
Splash: splash10-0fz9-0089000000-f8aef246d6f8f144f417
Num Peaks: 90
36.000 0
51.000 0
103.000 1
125.000 0
162.000 0
163.000 0
175.000 0
176.000 2
177.000 1
179.000 2
181.000 2
187.000 0
189.000 12
190.000 0
191.000 1
200.000 0
201.000 2
202.000 6
203.000 6
204.000 10
205.000 6
206.000 2
207.000 2
212.000 1
214.000 5
215.000 15
216.000 80
217.000 22
218.000 105
219.000 11
220.000 5
226.000 4
227.000 4
228.000 16
229.000 3
230.000 6
231.000 9
232.000 8
233.000 37
234.000 5
235.000 2
242.000 0
243.000 1
244.000 145
245.000 8
246.000 421
247.000 63
248.000 60
249.000 1
254.000 0
256.000 1
257.000 9
258.000 14
259.000 23
260.000 19
261.000 53
262.000 9
263.000 0
266.000 0
271.000 0
272.000 19
273.000 14
274.000 924
275.000 112
276.000 122
277.000 5
282.000 0
284.000 2
286.000 11
287.000 37
288.000 30
289.000 100
290.000 12
291.000 0
301.000 9
302.000 180
303.000 50
304.000 471
305.000 21
314.000 5
315.000 6
316.000 43
317.000 741
318.000 12
322.000 0
330.000 169
331.000 10
332.000 999
333.000 50
341.000 1

Name: Aloin
Synon: 1,8-dihydroxy-3-(hydroxymethyl)-10-[3,4,5-trihydroxy-6-(hydroxymethyl)oxan-2-yl]-10H-anthracen-9-one
DB#: MSBNK-IPB_Halle-PB006161
InChIKey: AFHJQYHRLPMKHU-UHFFFAOYSA-N
InChI: InChI=1S/C21H22O9/c22-6-8-4-10-14(21-20(29)19(28)17(26)13(7-23)30-21)9-2-1-3-11(24)15(9)18(27)16(10)12(25)5-8/h1-5,13-14,17,19-26,28-29H,6-7H2
SMILES: C1=CC2=C(C(=C1)O)C(=O)C3=C(C=C(C=C3C2C4C(C(C(C(O4)CO)O)O)O)CO)O
Precursor_type: [M+H]+
Spectrum_type: MS2
Instrument_type: LC-ESI-QTOF
Instrument: micrOTOF-Q
Ion_mode: POSITIVE
Collision_energy: 15 eV
Formula: C21H22O9
MW: 418
ExactMass: 418.12638
Comments: Parent=-1
Splash: splash10-000i-0090000000-9d98f95e98ec1c3dfbcd
Num Peaks: 59
168.042 0
206.167 0
209.056 1
211.073 285
212.077 27
215.960 0
226.066 0
227.067 17
233.038 0
238.885 0
238.910 0
239.068 999
239.908 0
240.071 124
241.088 6
255.062 16
256.068 4
256.094 0
257.078 291
257.197 1
258.080 37
263.065 14
263.132 0
264.068 0
267.066 2
267.239 0
268.069 1
269.077 6
273.643 0
278.068 1
279.058 0
281.086 7
285.079 0
290.869 0
293.074 2
294.084 0
295.090 0
297.071 0
305.085 0
307.059 0
311.194 0
317.078 2
319.094 1
321.060 0
329.155 0
329.527 0
335.090 3
337.904 0
347.094 2
363.096 0
365.095 6
365.878 0
383.113 9
384.112 0
419.116 2
420.163 0
420.220 0
421.224 3
491.101 0

Name: Glutamic acid
Synon: 2-aminopentanedioic acid
DB#: MSBNK-IPB_Halle-PB000462
InChIKey: WHUUTDBJXJRKMK-UHFFFAOYSA-N
InChI: InChI=1S/C5H9NO4/c6-3(5(9)10)1-2-4(7)8/h3H,1-2,6H2,(H,7,8)(H,9,10)
SMILES: C(CC(=O)O)C(C(=O)O)N
Precursor_type: [M+H]+
Spectrum_type: MS2
Instrument_type: LC-ESI-QTOF
Instrument: API QSTAR Pulsar i
Ion_mode: POSITIVE
Collision_energy: 15 eV
Formula: C5H9NO4
MW: 147
ExactMass: 147.05316
Comments: Parent=-1
Splash: splash10-001i-3900000000-e514d6585bdf9bc9e803
Num Peaks: 5
84.044 977
102.056 751
130.049 999
131.032 19
148.059 747

Name: Paleatin A
Synon: 5-[2-[3-[2-hydroxy-6-[2-(4-hydroxyphenyl)ethyl]phenoxy]phenyl]ethyl]-3-methoxybenzene-1,2-diol
DB#: MSBNK-IPB_Halle-PB011001
InChIKey: UPLFZIGBQDCELE-UHFFFAOYSA-N
InChI: InChI=1S/C29H28O6/c1-34-27-18-21(17-26(32)28(27)33)9-8-20-4-2-6-24(16-20)35-29-22(5-3-7-25(29)31)13-10-19-11-14-23(30)15-12-19/h2-7,11-12,14-18,30-33H,8-10,13H2,1H3
SMILES: COC1=CC(=CC(=C1O)O)CCC2=CC(=CC=C2)OC3=C(C=CC=C3O)CCC4=CC=C(C=C4)O
Precursor_type: [M+H]+
Spectrum_type: MS2
PrecursorMZ: 473.1959
Instrument_type: LC-ESI-QTOF
Instrument: Bruker MicrOTOF-Q
Ion_mode: POSITIVE
Collision_energy: 32.9896925
Formula: C29H28O6
MW: 472
ExactMass: 472.189
Comments: Parent=473.1959
Splash: splash10-02p0-0690000000-68c2534e5be345ee9664
Num Peaks: 225
103.05 1
107.05 4
115.05 5
117.07 9
118.08 1
119.05 14
120.06 9
120.99 2
121.06 653
121.19 1
122.07 59
123.05 8
124.05 1
125.03 3
125.06 1
127.05 1
128.06 3
129.07 8
130.07 2
131.05 7
132.05 1
133.06 24
134.06 2
135.04 94
136.05 7
137.06 20
138.03 16
139.04 9
141.07 4
142.08 1
143.09 1
144.09 1
145.06 19
146.07 4
147.08 21
148.08 2
149.06 12
150.06 2
151.07 13
152.05 75
153.05 497
154.06 50
155.07 10
156.08 1
156.09 1
157.07 16
158.07 2
159.08 3
161.06 6
165.07 43
166.08 15
167.07 844
168.07 94
169.07 30
170.07 9
171.08 38
172.09 5
173.06 3
175.08 3
176.06 2
177.07 19
178.08 19
179.08 45
180.07 10
181.07 308
182.07 61
183.08 120
184.08 22
185.1 37
186.1 4
187.08 6
191.08 10
192.09 5
193.1 49
194.08 28
195.08 136
196.06 17
196.08 24
197.06 257
198.07 78
199.08 278
200.08 39
201.09 12
202.08 5
203.08 14
204.09 2
205.07 3
206.08 8
207.08 48
208.09 13
209.06 267
210.07 163
211.08 598
212.08 182
213.09 331
214.09 49
215.07 83
216.08 15
217.08 3
219.08 11
220.09 8
221.1 79
222.1 24
223.08 84
224.08 480
225.09 439
226.09 118
227.08 429
228.08 82
229.09 148
230.09 26
231.1 6
232.1 2
233.09 1
233.2 1
234.06 2
235.07 8
236.08 5
236.22 2
237.09 36
238 1
238.1 34
239.11 999
240.11 182
241.09 143
242.09 286
243.07 52
243.09 39
244.08 46
245.08 6
245.11 5
247.08 4
249.09 4
251.11 7
252.11 4
253.11 22
254.1 9
255.1 29
256.11 15
257.08 219
258.09 55
259.09 15
260.1 11
261.1 8
262.1 3
263.11 3
265.11 8
267.1 6
268.09 4
269.09 2
269.11 2
270.13 26
271.1 22
272.1 12
273.11 19
274.1 2
274.12 2
275.11 6
277.11 2
277.12 4
281.09 3
283.11 28
284.12 6
285.09 3
285.12 3
286.1 10
287.11 10
288.1 2
291.14 5
293.1 8
294.11 2
297.09 2
299.11 8
300.11 4
301.12 62
302.13 13
303.11 2
304.11 4
305.12 4
310.1 3
311.11 31
312.11 9
313.11 4
314.1 12
315.11 13
316.11 4
317.12 8
319.13 42
320.14 9
321.14 2
327.1 4
328.11 4
329.12 47
330.12 13
331.1 6
332.1 5
333.15 80
334.15 21
335.15 2
343.13 4
345.12 3
346.12 4
347.13 48
348.13 13
349.13 1
349.14 3
350.12 5
351.12 2
361.15 23
362.15 5
363.13 6
364.13 4
365.13 2
371.16 2
379.15 16
380.16 3
385.14 2
413.17 2
413.18 3
425.13 3
427.19 5
441.17 2
453.14 10
454.14 3
473.2 2

Name: Xanthotoxin
Synon: 9-methoxyfuro[3,2-g]chromen-7-one
DB#: MSBNK-IPB_Halle-PB006122
InChIKey: QXKHYNVANLEOEG-UHFFFAOYSA-N
InChI: InChI=1S/C12H8O4/c1-14-12-10-8(4-5-15-10)6-7-2-3-9(13)16-11(7)12/h2-6H,1H3
SMILES: COC1=C2C(=CC3=C1OC=C3)C=CC(=O)O2
Precursor_type: [M+H]+
Spectrum_type: MS2
Instrument_type: LC-ESI-QTOF
Instrument: micrOTOF-Q
Ion_mode: POSITIVE
Collision_energy: 10 eV
Formula: C12H8O4
MW: 216
ExactMass: 216.04226
Comments: Parent=-1
Splash: splash10-014i-0090000000-cecd035cc60695427f78
Num Peaks: 16
158.035 0
161.059 10
173.058 6
174.030 5
185.022 10
186.025 0
189.053 11
190.056 0
202.024 88
203.028 7
216.037 0
216.903 0
217.048 999
217.376 0
218.051 100
219.053 4

Name: 4-methylumbelliferyl glucuronide
Synon: (2S,3S,4S,5R,6S)-3,4,5-trihydroxy-6-(4-methyl-2-oxochromen-7-yl)oxyoxane-2-carboxylic acid
DB#: MSBNK-IPB_Halle-PB006265
InChIKey: ARQXEQLMMNGFDU-JHZZJYKESA-N
InChI: InChI=1S/C16H16O9/c1-6-4-10(17)24-9-5-7(2-3-8(6)9)23-16-13(20)11(18)12(19)14(25-16)15(21)22/h2-5,11-14,16,18-20H,1H3,(H,21,22)/t11-,12-,13+,14-,16+/m0/s1
SMILES: CC1=CC(=O)OC2=C1C=CC(=C2)O[C@H]3[C@@H]([C@H]([C@@H]([C@H](O3)C(=O)O)O)O)O
Precursor_type: [M+H]+
Spectrum_type: MS2
Instrument_type: LC-ESI-QTOF
Instrument: micrOTOF-Q
Ion_mode: POSITIVE
Collision_energy: 15 eV
Formula: C16H16O9
MW: 352
ExactMass: 352.07943
Comments: Parent=-1
Splash: splash10-004i-0900000000-75f96300e2834d58179d
Num Peaks: 9
121.065 0
133.064 0
149.060 0
176.949 0
177.054 999
178.057 78
179.058 0
353.085 15
354.087 1

Name: Naringin
Synon: (2S)-7-[(2S,3R,4S,5S,6R)-4,5-dihydroxy-6-(hydroxymethyl)-3-[(2S,3R,4R,5R,6S)-3,4,5-trihydroxy-6-methyloxan-2-yl]oxyoxan-2-yl]oxy-5-hydroxy-2-(4-hydroxyphenyl)chroman-4-one
DB#: MSBNK-IPB_Halle-PB000785
InChIKey: DFPMSGMNTNDNHN-ZPHOTFPESA-N
InChI: InChI=1S/C27H32O14/c1-10-20(32)22(34)24(36)26(37-10)41-25-23(35)21(33)18(9-28)40-27(25)38-13-6-14(30)19-15(31)8-16(39-17(19)7-13)11-2-4-12(29)5-3-11/h2-7,10,16,18,20-30,32-36H,8-9H2,1H3/t10-,16-,18+,20-,21+,22+,23-,24+,25+,26-,27+/m0/s1
SMILES: C[C@H]1[C@@H]([C@H]([C@H]([C@@H](O1)O[C@@H]2[C@H]([C@@H]([C@H](O[C@H]2OC3=CC(=C4C(=O)C[C@H](OC4=C3)C5=CC=C(C=C5)O)O)CO)O)O)O)O)O
Precursor_type: [M+H]+
Spectrum_type: MS2
Instrument_type: LC-ESI-QTOF
Instrument: API QSTAR Pulsar i
Ion_mode: POSITIVE
Collision_energy: 25 eV
Formula: C27H32O14
MW: 580
ExactMass: 580.17921
Comments: Parent=-1
Splash: splash10-00di-0190000000-9a5364b689531e3430b2
Num Peaks: 14
71.047 8
85.028 32
129.052 75
147.063 76
153.016 31
273.076 999
297.070 5
315.089 28
339.093 15
383.123 17
401.133 10
417.123 15
419.139 10
435.135 23

Name: Biochanin A
Synon: 5,7-dihydroxy-3-(4-methoxyphenyl)chromen-4-one
DB#: MSBNK-IPB_Halle-PB005709
InChIKey: WUADCCWRTIWANL-UHFFFAOYSA-N
InChI: InChI=1S/C16H12O5/c1-20-11-4-2-9(3-5-11)12-8-21-14-7-10(17)6-13(18)15(14)16(12)19/h2-8,17-18H,1H3
SMILES: COC1=CC=C(C=C1)C2=COC3=CC(=CC(=C3C2=O)O)O
Precursor_type: [M+H]+
Spectrum_type: MS2
Instrument_type: LC-ESI-QTOF
Instrument: micrOTOF-Q
Ion_mode: POSITIVE
Collision_energy: 20 eV
Formula: C16H12O5
MW: 284
ExactMass: 284.06847
Comments: Parent=-1
Splash: splash10-000i-0090000000-9f9ee2eeb98251688f25
Num Peaks: 47
123.042 6
124.015 1
133.063 1
149.021 13
150.025 0
152.008 29
153.015 9
158.034 1
163.037 0
170.018 9
179.032 5
187.075 0
197.057 2
198.064 0
201.053 1
211.071 1
213.051 22
214.058 6
215.065 0
216.040 0
224.043 0
225.050 3
226.060 0
227.064 0
229.082 99
230.086 9
239.065 0
241.046 10
242.053 71
243.057 9
252.037 15
253.045 87
254.048 11
255.060 3
257.076 8
261.071 0
267.059 0
269.040 67
270.047 205
271.051 22
284.831 0
284.894 0
285.071 999
285.391 0
285.602 0
286.074 115
287.077 3

Name: Acetylcholine
Synon: 2-acetyloxyethyl-trimethylazanium
DB#: MSBNK-IPB_Halle-PB000347
InChIKey: OIPILFWXSMYKGL-UHFFFAOYSA-N
InChI: InChI=1S/C7H16NO2/c1-7(9)10-6-5-8(2,3)4/h5-6H2,1-4H3/q+1
SMILES: CC(=O)OCC[N+](C)(C)C
Precursor_type: [M]+
Spectrum_type: MS2
Instrument_type: LC-ESI-QTOF
Instrument: API QSTAR Pulsar i
Ion_mode: POSITIVE
Collision_energy: 20 eV
Formula: [C7H16NO2]+
MW: 146
ExactMass: 146.11810
Comments: Parent=-1
Splash: splash10-000i-9000000000-1be58612df9c1eef1282
Num Peaks: 4
43.017 15
60.080 57
87.041 999
146.115 92

Name: Wighteone O-glucoside
DB#: MSBNK-IPB_Halle-PN000107
InChI: N/A
SMILES: N/A
Precursor_type: [M+H]+
Spectrum_type: MS2
PrecursorMZ: 501.18
Instrument_type: ESI-TOF
Instrument: micrOTOF-Q
Ion_mode: POSITIVE
Collision_energy: 25 eV
Formula: C26H28O10
MW: 500
ExactMass: 500.16824709599996
Comments: Parent=501.18
Splash: splash10-001r-0095000000-427de7b06fa5048ffce4
Num Peaks: 2
283.0583 999
339.1268 574

Name: (+/-) Salsolinol
Synon: 1-methyl-1,2,3,4-tetrahydroisoquinoline-6,7-diol
DB#: MSBNK-IPB_Halle-PB006041
InChIKey: IBRKLUSXDYATLG-UHFFFAOYSA-N
InChI: InChI=1S/C10H13NO2/c1-6-8-5-10(13)9(12)4-7(8)2-3-11-6/h4-6,11-13H,2-3H2,1H3
SMILES: CC1C2=CC(=C(C=C2CCN1)O)O
Precursor_type: [M+H]+
Spectrum_type: MS2
Instrument_type: LC-ESI-QTOF
Instrument: micrOTOF-Q
Ion_mode: POSITIVE
Collision_energy: 15 eV
Formula: C10H13NO2
MW: 179
ExactMass: 179.09463
Comments: Parent=-1
Splash: splash10-01ot-0900000000-a28325af4d693ae8c614
Num Peaks: 34
115.052 169
116.057 16
117.068 156
118.072 14
119.049 1
123.043 5
126.044 0
127.052 23
128.056 1
130.040 0
133.062 12
134.045 0
134.064 0
134.092 1
135.045 17
135.077 24
136.079 0
137.058 87
138.062 4
144.056 0
144.973 0
145.063 999
146.066 87
147.068 1
148.049 8
151.073 85
152.076 6
161.058 3
162.089 2
163.073 725
164.077 63
165.080 0
180.100 210
181.103 17

Name: Naringenin
Synon: 5,7-dihydroxy-2-(4-hydroxyphenyl)chroman-4-one
DB#: MSBNK-IPB_Halle-PB000125
InChIKey: FTVWIRXFELQLPI-ZDUSSCGKSA-N
InChI: InChI=1S/C15H12O5/c16-9-3-1-8(2-4-9)13-7-12(19)15-11(18)5-10(17)6-14(15)20-13/h1-6,13,16-18H,7H2/t13-/m0/s1
SMILES: C1[C@H](OC2=CC(=CC(=C2C1=O)O)O)C3=CC=C(C=C3)O
Precursor_type: [M+H]+
Spectrum_type: MS2
Instrument_type: LC-ESI-QTOF
Instrument: API QSTAR Pulsar i
Ion_mode: POSITIVE
Collision_energy: 55 eV
Formula: C15H12O5
MW: 272
ExactMass: 272.06847
Comments: Parent=-1
Splash: splash10-0gbc-9800000000-79055ba218dabe14501d
Num Peaks: 29
53.037 10
55.017 70
65.038 111
67.018 165
68.997 238
69.035 194
77.039 59
79.018 32
81.034 12
83.014 46
85.030 8
91.054 774
92.058 15
92.999 10
95.050 91
97.029 90
107.049 63
111.011 37
115.054 28
119.050 538
120.054 13
123.044 23
125.022 17
128.060 19
147.043 58
152.060 30
153.018 999
154.024 43
157.068 9

Name: Apigenin O-glucoside malonylated
DB#: MSBNK-IPB_Halle-PN000071
InChI: N/A
SMILES: N/A
Precursor_type: [M+H]+
Spectrum_type: MS2
PrecursorMZ: 519.118
Instrument_type: ESI-TOF
Instrument: micrOTOF-Q
Ion_mode: POSITIVE
Collision_energy: 15 eV
Formula: C24H22O13
MW: 518
ExactMass: 518.106040764
Comments: Parent=519.118
Splash: splash10-00di-0090000000-686a8986b2c69a631705
Num Peaks: 6
271.0600 999
272.0630 97
273.0683 14
519.1173 83
520.1298 14
521.1193 5

Name: Resveratrol
Synon: 5-[(E)-2-(4-hydroxyphenyl)ethenyl]benzene-1,3-diol
DB#: MSBNK-IPB_Halle-PB000641
InChIKey: LUKBXSAWLPMMSZ-OWOJBTEDSA-N
InChI: InChI=1S/C14H12O3/c15-12-5-3-10(4-6-12)1-2-11-7-13(16)9-14(17)8-11/h1-9,15-17H/b2-1+
SMILES: C1=CC(=CC=C1/C=C/C2=CC(=CC(=C2)O)O)O
Precursor_type: [M+H]+
Spectrum_type: MS2
Instrument_type: LC-ESI-QTOF
Instrument: API QSTAR Pulsar i
Ion_mode: POSITIVE
Collision_energy: 15 eV
Formula: C14H12O3
MW: 228
ExactMass: 228.07864
Comments: Parent=-1
Splash: splash10-004i-0390000000-f8caace8d6c937282e65
Num Peaks: 8
107.050 19
111.045 11
119.050 51
135.044 259
183.082 18
211.081 30
229.087 999
230.094 49

Name: Daidzein
Synon: 7-hydroxy-3-(4-hydroxyphenyl)chromen-4-one
DB#: MSBNK-IPB_Halle-PB000842
InChIKey: ZQSIJRDFPHDXIC-UHFFFAOYSA-N
InChI: InChI=1S/C15H10O4/c16-10-3-1-9(2-4-10)13-8-19-14-7-11(17)5-6-12(14)15(13)18/h1-8,16-17H
SMILES: C1=CC(=CC=C1C2=COC3=C(C2=O)C=CC(=C3)O)O
Precursor_type: [M+H]+
Spectrum_type: MS2
Instrument_type: LC-ESI-QTOF
Instrument: API QSTAR Pulsar i
Ion_mode: POSITIVE
Collision_energy: 40 eV
Formula: C15H10O4
MW: 254
ExactMass: 254.05791
Comments: Parent=-1
Splash: splash10-0faa-0920000000-edcf73d8925904649c95
Num Peaks: 65
55.020 60
65.040 39
68.999 33
81.036 37
89.040 14
91.056 394
93.036 12
105.035 45
106.042 26
109.029 28
115.054 53
118.041 27
119.050 215
121.028 119
127.052 29
128.061 283
129.069 194
131.049 105
133.028 77
134.036 67
137.023 999
138.027 27
141.071 56
143.086 117
144.061 15
145.029 157
147.044 22
149.024 98
151.054 40
152.062 393
153.070 598
154.075 36
155.062 53
156.059 12
157.066 206
158.071 9
165.074 38
167.040 9
168.060 13
169.069 71
170.076 25
171.084 235
175.043 22
179.065 10
181.069 984
182.076 112
184.057 130
185.064 30
197.064 124
198.071 88
199.078 984
200.082 48
209.067 133
210.072 43
211.079 29
212.052 28
213.059 11
225.055 22
226.063 45
227.070 456
228.074 21
237.056 308
238.060 16
255.068 471
256.072 25

Name: 4-Coumaroylcholine
Synon: 2-[(E)-3-(4-hydroxyphenyl)prop-2-enoyl]oxyethyl-trimethylazanium
DB#: MSBNK-IPB_Halle-PB000354
InChIKey: WRLCNNSWESNISL-UHFFFAOYSA-O
InChI: InChI=1S/C14H19NO3/c1-15(2,3)10-11-18-14(17)9-6-12-4-7-13(16)8-5-12/h4-9H,10-11H2,1-3H3/p+1
SMILES: C[N+](C)(C)CCOC(=O)C=CC1=CC=C(C=C1)O
Precursor_type: [M]+
Spectrum_type: MS2
Instrument_type: LC-ESI-QTOF
Instrument: API QSTAR Pulsar i
Ion_mode: POSITIVE
Collision_energy: 40 eV
Formula: [C14H20NO3]+
MW: 250
ExactMass: 250.14432
Comments: Parent=-1
Splash: splash10-00kb-0900000000-925e433fc799c3ad2943
Num Peaks: 4
91.052 57
119.050 572
147.045 999
191.071 154

Name: 2'-Hydroxygenistein C-glucoside malonylated
Synon: 2'Hydroxygenistein C-glucoside malonylated
DB#: MSBNK-IPB_Halle-PN000026
InChI: N/A
SMILES: N/A
Precursor_type: [M+H]+
Spectrum_type: MS2
PrecursorMZ: 535.109
Instrument_type: ESI-TOF
Instrument: micrOTOF-Q
Ion_mode: POSITIVE
Collision_energy: 15 eV
Formula: C24H22O14
MW: 534
ExactMass: 534.1009553839999
Comments: Parent=535.109
Splash: splash10-000i-0007690000-eb1bfba6245a82f474ad
Num Peaks: 27
299.0547 83
311.0563 153
329.0668 450
330.0737 79
353.0658 283
354.0706 64
359.0781 64
367.0808 60
377.0677 100
395.0787 331
396.0819 79
413.0954 112
431.1101 94
449.1039 85
455.1005 337
456.1079 135
473.1165 329
474.1126 68
491.1234 119
499.0899 226
500.0932 56
517.1006 527
518.1075 102
519.0972 49
535.1113 999
536.1124 275
537.1390 79

Name: Quercetin
Synon: 2-(3,4-dihydroxyphenyl)-3,5,7-trihydroxychromen-4-one
DB#: MSBNK-IPB_Halle-PB004102
InChIKey: REFJWTPEDVJJIY-UHFFFAOYSA-N
InChI: InChI=1S/C15H10O7/c16-7-4-10(19)12-11(5-7)22-15(14(21)13(12)20)6-1-2-8(17)9(18)3-6/h1-5,16-19,21H
SMILES: C1=CC(=C(C=C1C2=C(C(=O)C3=C(C=C(C=C3O2)O)O)O)O)O
Precursor_type: [M-H]-
Spectrum_type: MS2
Instrument_type: LC-ESI-QQ
Instrument: TSQ 7000
Ion_mode: NEGATIVE
Collision_energy: 25 eV
Formula: C15H10O7
MW: 302
ExactMass: 302.04265
Comments: Parent=-1
Splash: splash10-0udi-0910000000-350f78e2382f3fecc61a
Num Peaks: 90
63.000 1
65.000 17
83.000 20
93.000 10
95.000 0
107.000 160
108.000 2
109.000 13
111.000 1
117.000 0
119.000 0
121.000 165
123.000 1
124.000 0
125.000 6
133.000 0
135.000 0
136.000 3
141.000 0
143.000 1
145.000 0
147.000 6
149.000 31
151.000 999
152.000 4
153.000 0
156.000 0
157.000 2
159.000 8
161.000 5
162.000 1
163.000 39
164.000 20
165.000 1
167.000 3
169.000 0
171.000 1
173.000 3
174.000 0
175.000 14
176.000 0
177.000 3
179.000 362
181.000 0
183.000 5
185.000 8
187.000 14
189.000 13
190.000 0
191.000 6
192.000 8
193.000 27
195.000 5
199.000 1
201.000 15
202.000 0
203.000 5
205.000 11
211.000 16
212.000 1
213.000 4
214.000 1
215.000 5
217.000 3
219.000 0
225.000 4
227.000 8
228.000 3
229.000 42
230.000 6
231.000 14
233.000 1
239.000 2
240.000 4
241.000 0
243.000 9
244.000 0
245.000 54
255.000 19
256.000 6
257.000 11
270.000 0
271.000 4
272.000 2
273.000 79
283.000 1
284.000 6
298.000 0
299.000 25
301.000 152

Name: Isoleucine
Synon: 2-amino-3-methylpentanoic acid
DB#: MSBNK-IPB_Halle-PB000397
InChIKey: AGPKZVBTJJNPAG-UHFFFAOYSA-N
InChI: InChI=1S/C6H13NO2/c1-3-4(2)5(7)6(8)9/h4-5H,3,7H2,1-2H3,(H,8,9)
SMILES: CCC(C)C(C(=O)O)N
Precursor_type: [M+H]+
Spectrum_type: MS2
Instrument_type: LC-ESI-QTOF
Instrument: API QSTAR Pulsar i
Ion_mode: POSITIVE
Collision_energy: 25 eV
Formula: C6H13NO2
MW: 131
ExactMass: 131.09463
Comments: Parent=-1
Splash: splash10-00kr-9000000000-b5193c14ac1b83a826f8
Num Peaks: 15
39.024 2
41.040 28
44.052 121
45.036 6
55.058 3
56.053 3
57.059 19
58.067 20
59.052 1
62.931 0
67.058 3
69.073 503
71.075 0
73.067 5
86.099 999

Name: 5-Hydroxytryptophan
Synon: 2-amino-3-(5-hydroxy-1H-indol-3-yl)propanoic acid
DB#: MSBNK-IPB_Halle-PB001401
InChIKey: LDCYZAJDBXYCGN-UHFFFAOYSA-N
InChI: InChI=1S/C11H12N2O3/c12-9(11(15)16)3-6-5-13-10-2-1-7(14)4-8(6)10/h1-2,4-5,9,13-14H,3,12H2,(H,15,16)
SMILES: C1=CC2=C(C=C1O)C(=CN2)CC(C(=O)O)N
Precursor_type: [M+H]+
Spectrum_type: MS2
Instrument_type: LC-ESI-QTOF
Instrument: API QSTAR Pulsar i
Ion_mode: POSITIVE
Collision_energy: 15 eV
Formula: C11H12N2O3
MW: 220
ExactMass: 220.08479
Comments: Parent=-1
Splash: splash10-0udi-0090000000-44c37ec15a5546b1c353
Num Peaks: 11
71.082 4
85.094 2
111.082 2
139.064 5
161.107 3
162.053 68
165.111 3
175.082 19
204.065 999
205.072 30
221.095 80

Name: Valine
Synon: 2-amino-3-methylbutanoic acid
DB#: MSBNK-IPB_Halle-PB000390
InChIKey: KZSNJWFQEVHDMF-UHFFFAOYSA-N
InChI: InChI=1S/C5H11NO2/c1-3(2)4(6)5(7)8/h3-4H,6H2,1-2H3,(H,7,8)
SMILES: CC(C)C(C(=O)O)N
Precursor_type: [M+H]+
Spectrum_type: MS2
Instrument_type: LC-ESI-QTOF
Instrument: API QSTAR Pulsar i
Ion_mode: POSITIVE
Collision_energy: 40 eV
Formula: C5H11NO2
MW: 117
ExactMass: 117.07898
Comments: Parent=-1
Splash: splash10-0a4i-9000000000-4ea48e5cb13221409784
Num Peaks: 13
39.023 40
41.040 12
42.035 59
43.019 5
44.051 21
45.036 44
53.042 56
55.057 999
56.052 137
57.060 503
58.067 1
59.052 55
72.082 182

Name: Kinetin
Synon: N-(furan-2-ylmethyl)-7H-purin-6-amine
DB#: MSBNK-IPB_Halle-PB005862
InChIKey: QANMHLXAZMSUEX-UHFFFAOYSA-N
InChI: InChI=1S/C10H9N5O/c1-2-7(16-3-1)4-11-9-8-10(13-5-12-8)15-6-14-9/h1-3,5-6H,4H2,(H2,11,12,13,14,15)
SMILES: C1=COC(=C1)CNC2=NC=NC3=C2NC=N3
Precursor_type: [M+H]+
Spectrum_type: MS2
Instrument_type: LC-ESI-QTOF
Instrument: micrOTOF-Q
Ion_mode: POSITIVE
Collision_energy: 15 eV
Formula: C10H9N5O
MW: 215
ExactMass: 215.08071
Comments: Parent=-1
Splash: splash10-014j-0950000000-23164321e4dbcf56bfc8
Num Peaks: 32
119.034 10
121.050 7
135.066 6
136.060 103
137.059 5
144.053 0
146.054 1
147.066 2
147.931 0
147.983 0
148.060 999
149.062 74
159.063 1
160.062 1
161.080 8
162.076 6
171.065 19
172.063 4
173.068 126
174.070 14
175.065 0
187.081 0
188.091 304
189.093 32
198.075 24
199.067 3
201.061 3
215.857 0
215.963 0
216.086 950
217.088 107
218.094 1

Name: Betaine-Aldehyde
Synon: trimethyl-(2-oxoethyl)azanium
DB#: MSBNK-IPB_Halle-PB001501
InChIKey: SXKNCCSPZDCRFD-UHFFFAOYSA-N
InChI: InChI=1S/C5H12NO/c1-6(2,3)4-5-7/h5H,4H2,1-3H3/q+1
SMILES: C[N+](C)(C)CC=O
Precursor_type: [M]+
Spectrum_type: MS2
Instrument_type: LC-ESI-QQ
Instrument: TSQ 7000
Ion_mode: POSITIVE
Collision_energy: 25 eV
Formula: [C5H12NO]+
MW: 102
ExactMass: 102.09189
Comments: Parent=-1
Splash: splash10-0a4i-9000000000-a88ccc4efc693cee968e
Num Peaks: 21
30.000 2
31.000 0
42.000 7
43.000 21
44.000 5
45.000 1
56.000 6
57.000 1
58.000 999
59.000 926
61.000 17
70.000 2
71.000 1
72.000 12
73.000 2
74.000 0
84.000 6
87.000 26
101.000 0
102.000 123
103.000 3

Name: Histidine
Synon: 2-amino-3-(3H-imidazol-4-yl)propanoic acid
DB#: MSBNK-IPB_Halle-PB000424
InChIKey: HNDVDQJCIGZPNO-UHFFFAOYSA-N
InChI: InChI=1S/C6H9N3O2/c7-5(6(10)11)1-4-2-8-3-9-4/h2-3,5H,1,7H2,(H,8,9)(H,10,11)
SMILES: C1=C(NC=N1)CC(C(=O)O)N
Precursor_type: [M+H]+
Spectrum_type: MS2
Instrument_type: LC-ESI-QTOF
Instrument: API QSTAR Pulsar i
Ion_mode: POSITIVE
Collision_energy: 35 eV
Formula: C6H9N3O2
MW: 155
ExactMass: 155.06948
Comments: Parent=-1
Splash: splash10-001i-9200000000-76e4a95a45c6a12b687d
Num Peaks: 15
41.039 12
54.034 20
55.042 15
56.049 331
66.033 34
67.040 5
68.048 86
69.044 13
81.044 157
82.052 415
83.059 999
93.044 606
95.060 112
110.070 750
111.054 16

Name: Chrysoeriol O-glucosylglucoside malonylated
DB#: MSBNK-IPB_Halle-PN000078
InChI: N/A
SMILES: N/A
Precursor_type: [M+H]+
Spectrum_type: MS2
PrecursorMZ: 711.471
Instrument_type: ESI-TOF
Instrument: micrOTOF-Q
Ion_mode: POSITIVE
Collision_energy: 15 eV
Formula: C31H34O19
MW: 710
ExactMass: 710.1694288680001
Comments: Parent=711.471
Splash: splash10-0udi-0009000100-4e77d6fae165d4759276
Num Peaks: 9
301.0703 999
302.0731 88
303.0750 16
463.1225 66
464.1294 18
625.1698 11
711.1724 184
712.1799 40
713.1765 14

Name: Bicuculline
Synon: (6R)-6-[(5S)-6-methyl-7,8-dihydro-5H-[1,3]dioxolo[4,5-g]isoquinolin-5-yl]-6H-furo[3,4-g][1,3]benzodioxol-8-one
DB#: MSBNK-IPB_Halle-PB005943
InChIKey: IYGYMKDQCDOMRE-ZWKOTPCHSA-N
InChI: InChI=1S/C20H17NO6/c1-21-5-4-10-6-14-15(25-8-24-14)7-12(10)17(21)18-11-2-3-13-19(26-9-23-13)16(11)20(22)27-18/h2-3,6-7,17-18H,4-5,8-9H2,1H3/t17-,18+/m0/s1
SMILES: CN1CCC2=CC3=C(C=C2[C@H]1[C@H]4C5=C(C6=C(C=C5)OCO6)C(=O)O4)OCO3
Precursor_type: [M+H]+
Spectrum_type: MS2
Instrument_type: LC-ESI-QTOF
Instrument: micrOTOF-Q
Ion_mode: POSITIVE
Collision_energy: 20 eV
Formula: C20H17NO6
MW: 367
ExactMass: 367.10559
Comments: Parent=-1
Splash: splash10-0a4i-0039000000-01b4f70e0d954ed7658e
Num Peaks: 67
149.058 5
175.036 0
176.069 9
177.017 0
188.068 3
189.077 10
190.084 59
191.088 7
219.043 0
221.058 2
223.073 3
233.057 4
235.074 3
239.069 0
247.039 0
249.051 70
250.055 8
251.067 10
252.070 0
261.051 29
262.056 3
263.068 6
264.074 0
265.051 1
266.054 0
267.062 9
268.066 0
277.046 228
278.050 34
279.062 44
280.067 6
281.073 6
282.070 0
289.046 42
290.050 6
291.061 15
292.070 8
293.076 7
295.056 24
296.060 3
297.073 3
303.061 7
304.065 0
307.057 999
308.060 154
309.069 16
310.079 0
311.055 0
319.057 108
320.061 19
321.071 5
322.085 0
325.067 34
326.071 4
332.087 2
333.078 0
335.075 9
336.077 0
337.067 18
338.073 2
339.084 1
350.099 6
351.101 0
353.084 0
368.109 178
369.112 32
370.114 0

Name: Genistein
Synon: 5,7-dihydroxy-3-(4-hydroxyphenyl)chromen-4-one
DB#: MSBNK-IPB_Halle-PB005713
InChIKey: TZBJGXHYKVUXJN-UHFFFAOYSA-N
InChI: InChI=1S/C15H10O5/c16-9-3-1-8(2-4-9)11-7-20-13-6-10(17)5-12(18)14(13)15(11)19/h1-7,16-18H
SMILES: C1=CC(=CC=C1C2=COC3=CC(=CC(=C3C2=O)O)O)O
Precursor_type: [M+H]+
Spectrum_type: MS2
Instrument_type: LC-ESI-QTOF
Instrument: micrOTOF-Q
Ion_mode: POSITIVE
Collision_energy: 15 eV
Formula: C15H10O5
MW: 270
ExactMass: 270.05282
Comments: Parent=-1
Splash: splash10-00di-0090000000-125841d51722dcc61cba
Num Peaks: 15
145.026 0
149.021 1
153.016 5
197.056 0
215.067 23
216.070 1
225.053 0
243.061 26
244.065 3
253.045 10
254.048 0
271.055 999
271.331 0
272.059 131
273.060 7

Name: Amentoflavone
Synon: 8-[5-(5,7-dihydroxy-4-oxochromen-2-yl)-2-hydroxyphenyl]-5,7-dihydroxy-2-(4-hydroxyphenyl)chromen-4-one
DB#: MSBNK-IPB_Halle-PB006306
InChIKey: YUSWMAULDXZHPY-UHFFFAOYSA-N
InChI: InChI=1S/C30H18O10/c31-15-4-1-13(2-5-15)24-12-23(38)29-21(36)10-20(35)27(30(29)40-24)17-7-14(3-6-18(17)33)25-11-22(37)28-19(34)8-16(32)9-26(28)39-25/h1-12,31-36H
SMILES: C1=CC(=CC=C1C2=CC(=O)C3=C(O2)C(=C(C=C3O)O)C4=C(C=CC(=C4)C5=CC(=O)C6=C(C=C(C=C6O5)O)O)O)O
Precursor_type: [M+H]+
Spectrum_type: MS2
Instrument_type: LC-ESI-QTOF
Instrument: micrOTOF-Q
Ion_mode: POSITIVE
Collision_energy: 30 eV
Formula: C30H18O10
MW: 538
ExactMass: 538.09000
Comments: Parent=-1
Splash: splash10-000i-0002390000-dbb1987153fe31c83ecd
Num Peaks: 70
121.026 0
153.017 6
242.057 0
251.029 0
269.039 2
270.049 17
271.056 3
283.056 17
284.063 1
307.054 10
308.057 1
311.051 15
312.052 0
319.056 2
321.072 0
333.068 1
335.050 41
336.053 4
337.036 1
343.084 0
345.071 5
347.050 11
349.063 0
353.069 1
355.040 0
359.051 7
361.029 2
375.044 4
376.052 4
377.059 140
378.063 24
379.044 5
387.080 63
388.087 11
389.062 0
390.067 0
401.057 4
403.039 234
404.043 49
404.156 0
405.049 1
413.063 2
418.066 4
419.071 9
421.049 71
422.051 14
423.055 0
431.066 2
445.054 1
453.098 1
469.087 0
471.102 0
495.103 5
496.091 1
497.079 47
498.082 11
511.095 1
521.076 3
539.090 999
539.221 0
539.320 0
539.420 1
539.495 0
539.603 0
539.715 0
539.796 0
540.093 293
540.274 1
540.350 0
541.096 29

Name: 2'-Hydroxygenistein O-glucoside malonylated
DB#: MSBNK-IPB_Halle-PN000045
InChI: N/A
SMILES: N/A
Precursor_type: [M+H]+
Spectrum_type: MS2
PrecursorMZ: 535.103
Instrument_type: ESI-TOF
Instrument: micrOTOF-Q
Ion_mode: POSITIVE
Collision_energy: 15 eV
Formula: C24H22O14
MW: 534
ExactMass: 534.1009553839999
Comments: Parent=535.103
Splash: splash10-000i-0090000000-1cd9135caa76e44b2cb1
Num Peaks: 2
287.0535 999
288.0581 166

Name: Naringin
Synon: (2S)-7-[(2S,3R,4S,5S,6R)-4,5-dihydroxy-6-(hydroxymethyl)-3-[(2S,3R,4R,5R,6S)-3,4,5-trihydroxy-6-methyloxan-2-yl]oxyoxan-2-yl]oxy-5-hydroxy-2-(4-hydroxyphenyl)-2,3-dihydrochromen-4-one
DB#: MSBNK-IPB_Halle-PB005724
InChIKey: DFPMSGMNTNDNHN-ZPHOTFPESA-N
InChI: InChI=1S/C27H32O14/c1-10-20(32)22(34)24(36)26(37-10)41-25-23(35)21(33)18(9-28)40-27(25)38-13-6-14(30)19-15(31)8-16(39-17(19)7-13)11-2-4-12(29)5-3-11/h2-7,10,16,18,20-30,32-36H,8-9H2,1H3/t10-,16-,18+,20-,21+,22+,23-,24+,25+,26-,27+/m0/s1
SMILES: C[C@H]1[C@@H]([C@H]([C@H]([C@@H](O1)O[C@@H]2[C@H]([C@@H]([C@H](O[C@H]2OC3=CC(=C4C(=O)C[C@H](OC4=C3)C5=CC=C(C=C5)O)O)CO)O)O)O)O)O
Precursor_type: [M+H]+
Spectrum_type: MS2
Instrument_type: LC-ESI-QTOF
Instrument: micrOTOF-Q
Ion_mode: POSITIVE
Collision_energy: 20 eV
Formula: C27H32O14
MW: 580
ExactMass: 580.17921
Comments: Parent=-1
Splash: splash10-00di-0090000000-39213af3b7ba9a5215a8
Num Peaks: 42
129.053 1
147.044 3
153.016 55
154.020 1
171.026 5
179.031 2
195.026 7
219.026 3
231.061 1
245.041 1
261.034 1
263.051 9
264.053 0
273.072 999
274.075 111
275.077 3
279.046 0
281.061 4
285.071 8
286.076 0
297.067 8
298.071 0
299.071 0
315.082 21
316.085 2
339.081 19
340.084 2
351.082 2
363.080 0
365.096 3
369.093 1
381.091 3
383.107 9
384.108 0
399.103 4
400.104 0
401.116 3
417.111 5
418.115 0
419.127 3
435.123 5
436.130 0

Name: Naringenin
Synon: 5,7-Dihydroxy-2-(4-hydroxyphenyl)chroman-4-one
Synon: Salipurol
DB#: MSBNK-IPB_Halle-PN000003
InChIKey: FTVWIRXFELQLPI-ZDUSSCGKSA-N
InChI: InChI=1S/C15H12O5/c16-9-3-1-8(2-4-9)13-7-12(19)15-11(18)5-10(17)6-14(15)20-13/h1-6,13,16-18H,7H2/t13-/m0/s1
SMILES: C1[C@H](OC2=CC(=CC(=C2C1=O)O)O)C3=CC=C(C=C3)O
Precursor_type: [M+H]+
Spectrum_type: MS2
PrecursorMZ: 273.073
Instrument_type: ESI-TOF
Instrument: micrOTOF-Q
Ion_mode: POSITIVE
Collision_energy: 15 eV
Formula: C15H12O5
MW: 272
ExactMass: 272.068473484
Comments: Parent=273.073
Splash: splash10-0udi-2900000000-a5f564237b84d1e72d98
Num Peaks: 12
77.039 14
91.053 352
92.057 34
95.048 32
97.029 34
107.051 36
119.049 276
120.050 25
123.041 20
147.042 79
153.016 999
154.020 58

Name: Luteone O-glucoside
DB#: MSBNK-IPB_Halle-PN000103
InChI: N/A
SMILES: N/A
Precursor_type: [M+H]+
Spectrum_type: MS2
PrecursorMZ: 517.175
Instrument_type: ESI-TOF
Instrument: micrOTOF-Q
Ion_mode: POSITIVE
Collision_energy: 15 eV
Formula: C26H28O11
MW: 516
ExactMass: 516.163161716
Comments: Parent=517.175
Splash: splash10-052b-0095000000-1f283382fe94147384bb
Num Peaks: 2
299.0570 999
355.1176 600

Name: o-Anisic acid
Synon: 2-methoxybenzoic acid
DB#: MSBNK-IPB_Halle-PB000626
InChIKey: ILUJQPXNXACGAN-UHFFFAOYSA-N
InChI: InChI=1S/C8H8O3/c1-11-7-5-3-2-4-6(7)8(9)10/h2-5H,1H3,(H,9,10)
SMILES: COC1=CC=CC=C1C(=O)O
Precursor_type: [M+H]+
Spectrum_type: MS2
Instrument_type: LC-ESI-QTOF
Instrument: API QSTAR Pulsar i
Ion_mode: POSITIVE
Collision_energy: 55 eV
Formula: C8H8O3
MW: 152
ExactMass: 152.04734
Comments: Parent=-1
Splash: splash10-0ikc-9000000000-d2000913539e4a48bd80
Num Peaks: 11
50.016 53
51.024 999
54.047 26
63.024 763
64.032 647
65.036 8
77.039 603
81.040 17
92.028 727
95.052 51
105.043 17

Name: 1-methoxyindole-3-carbaldehyde
DB#: MSBNK-IPB_Halle-PB000534
InChIKey: NFGIENSPALNOON-UHFFFAOYSA-N
InChI: InChI=1S/C10H9NO2/c1-13-11-6-8(7-12)9-4-2-3-5-10(9)11/h2-7H,1H3
SMILES: CON1C=C(C2=CC=CC=C21)C=O
Precursor_type: [M+H]+
Spectrum_type: MS2
PrecursorMZ: 176.07115
Instrument_type: LC-ESI-QTOF
Instrument: API QSTAR Pulsar i
Ion_mode: POSITIVE
Collision_energy: 55 eV
Formula: C10H9NO2
MW: 175
ExactMass: 175.06333
Comments: Parent=176.07115
Splash: splash10-000i-9400000000-e6d639428c5314b4e1c2
Num Peaks: 5
77.039 107
89.038 999
90.046 276
104.050 481
116.050 153

Name: Ononin
Synon: 3-(4-methoxyphenyl)-7-[(2S,3R,4S,5S,6R)-3,4,5-trihydroxy-6-(hydroxymethyl)oxan-2-yl]oxychromen-4-one
DB#: MSBNK-IPB_Halle-PB000746
InChIKey: MGJLSBDCWOSMHL-MIUGBVLSSA-N
InChI: InChI=1S/C22H22O9/c1-28-12-4-2-11(3-5-12)15-10-29-16-8-13(6-7-14(16)18(15)24)30-22-21(27)20(26)19(25)17(9-23)31-22/h2-8,10,17,19-23,25-27H,9H2,1H3/t17-,19-,20+,21-,22-/m1/s1
SMILES: COC1=CC=C(C=C1)C2=COC3=C(C2=O)C=CC(=C3)O[C@H]4[C@@H]([C@H]([C@@H]([C@H](O4)CO)O)O)O
Precursor_type: [M+H]+
Spectrum_type: MS2
Instrument_type: LC-ESI-QTOF
Instrument: API QSTAR Pulsar i
Ion_mode: POSITIVE
Collision_energy: 25 eV
Formula: C22H22O9
MW: 430
ExactMass: 430.12638
Comments: Parent=-1
Splash: splash10-014i-0090000000-73d57a2194a7712e79d1
Num Peaks: 1
269.081 999

Name: Emetine
Synon: (2S,3R,11bS)-2-[[(1R)-6,7-dimethoxy-1,2,3,4-tetrahydroisoquinolin-1-yl]methyl]-3-ethyl-9,10-dimethoxy-2,3,4,6,7,11b-hexahydro-1H-pyrido[2,1-a]isoquinoline
DB#: MSBNK-IPB_Halle-PB005912
InChIKey: AUVVAXYIELKVAI-CKBKHPSWSA-N
InChI: InChI=1S/C29H40N2O4/c1-6-18-17-31-10-8-20-14-27(33-3)29(35-5)16-23(20)25(31)12-21(18)11-24-22-15-28(34-4)26(32-2)13-19(22)7-9-30-24/h13-16,18,21,24-25,30H,6-12,17H2,1-5H3/t18-,21-,24+,25-/m0/s1
SMILES: CC[C@H]1CN2CCC3=CC(=C(C=C3[C@@H]2C[C@@H]1C[C@@H]4C5=CC(=C(C=C5CCN4)OC)OC)OC)OC
Precursor_type: [M+H]+
Spectrum_type: MS2
Instrument_type: LC-ESI-QTOF
Instrument: micrOTOF-Q
Ion_mode: POSITIVE
Collision_energy: 30 eV
Formula: C29H40N2O4
MW: 480
ExactMass: 480.29881
Comments: Parent=-1
Splash: splash10-007k-0190400000-03340a80ae4a08cc0763
Num Peaks: 140
131.070 0
146.071 1
147.069 3
150.065 5
151.074 7
159.075 0
160.085 7
161.083 3
162.088 13
163.093 2
164.081 2
165.089 73
166.093 2
174.068 1
175.078 0
176.078 9
177.088 49
178.092 4
179.103 39
180.105 1
188.079 1
188.099 0
189.088 9
190.086 10
191.102 45
192.099 64
193.108 7
194.115 102
195.117 8
201.088 12
202.103 3
203.102 19
204.101 12
205.107 24
206.115 49
207.117 5
208.129 0
213.101 0
214.119 7
215.107 5
216.103 4
217.117 7
218.116 14
219.128 2
220.131 49
221.131 4
222.144 2
226.132 11
227.109 0
228.107 7
229.117 6
230.116 38
231.125 21
232.130 6
233.140 1
234.147 0
239.118 0
240.132 2
241.128 1
242.128 11
243.132 8
244.130 40
245.146 16
246.145 999
247.148 120
248.157 7
254.130 0
255.128 0
256.134 11
257.149 45
258.146 36
259.156 11
260.162 3
262.178 0
268.152 0
269.151 1
270.146 17
271.157 6
272.161 147
273.166 28
274.176 527
275.180 68
276.191 4
283.163 1
284.159 10
285.168 7
286.176 50
287.181 7
288.192 37
289.196 4
290.206 0
298.175 6
299.180 0
300.191 40
301.196 5
302.208 3
303.203 4
338.150 0
339.153 0
376.206 0
404.215 0
405.240 0
406.221 1
407.216 0
408.212 0
418.231 1
419.247 0
420.241 5
421.233 0
422.235 1
432.248 3
433.247 1
434.229 11
435.241 3
436.243 32
437.251 9
438.260 1
447.250 0
448.241 19
448.351 0
449.259 9
450.264 1
451.255 6
452.271 5
453.273 0
462.260 9
463.257 1
464.274 232
464.427 0
465.276 65
465.398 0
466.277 4
479.286 27
480.293 8
481.300 684
481.484 0
481.561 0
482.303 168
482.431 0
483.306 5

Name: Chrysoeriol O-glucosylglucoside malonylated
DB#: MSBNK-IPB_Halle-PN000077
InChI: N/A
SMILES: N/A
Precursor_type: [M-H]-
Spectrum_type: MS2
PrecursorMZ: 709.162
Instrument_type: ESI-TOF
Instrument: micrOTOF-Q
Ion_mode: NEGATIVE
Collision_energy: 25 eV
Formula: C31H34O19
MW: 710
ExactMass: 710.1694288680001
Comments: Parent=709.162
Splash: splash10-00dj-0030009000-ed93d1c31c1ebaa94eff
Num Peaks: 11
299.0544 999
300.0611 111
605.1547 476
606.1581 125
607.1591 39
623.1639 991
624.1697 271
625.1677 71
665.1768 180
666.1799 58
667.1779 42

Name: Caffeine
Synon: 1,3,7-trimethylpurine-2,6-dione
DB#: MSBNK-IPB_Halle-PB003782
InChIKey: RYYVLZVUVIJVGH-UHFFFAOYSA-N
InChI: InChI=1S/C8H10N4O2/c1-10-4-9-6-5(10)7(13)12(3)8(14)11(6)2/h4H,1-3H3
SMILES: CN1C=NC2=C1C(=O)N(C(=O)N2C)C
Precursor_type: [M+H]+
Spectrum_type: MS2
Instrument_type: LC-ESI-QQ
Instrument: TSQ 7000
Ion_mode: POSITIVE
Collision_energy: 30 eV
Formula: C8H10N4O2
MW: 194
ExactMass: 194.08038
Comments: Parent=-1
Splash: splash10-000i-5900000000-6f909aa0d652aca47648
Num Peaks: 89
27.000 5
28.000 4
30.000 11
32.000 3
36.000 3
37.000 13
40.000 2
41.000 0
42.000 372
43.000 2
44.000 1
45.000 41
46.000 6
48.000 5
52.000 3
53.000 2
54.000 22
55.000 2
56.000 22
57.000 13
58.000 3
59.000 1
62.000 0
66.000 4
67.000 12
68.000 7
69.000 203
70.000 33
72.000 22
73.000 43
74.000 0
81.000 16
82.000 1
83.000 295
84.000 22
88.000 0
89.000 12
92.000 2
93.000 16
95.000 8
97.000 26
98.000 13
104.000 1
108.000 11
109.000 96
110.000 362
111.000 19
112.000 9
113.000 22
114.000 2
115.000 1
118.000 3
119.000 8
120.000 9
121.000 9
122.000 34
123.000 87
124.000 19
126.000 7
127.000 0
128.000 1
131.000 11
132.000 1
135.000 25
136.000 15
137.000 2
138.000 999
140.000 3
142.000 14
150.000 1
154.000 3
155.000 15
158.000 3
160.000 2
163.000 37
166.000 1
168.000 15
169.000 3
174.000 4
177.000 2
180.000 10
181.000 12
186.000 4
190.000 2
194.000 2
195.000 104
196.000 11
197.000 9
199.000 2

Name: Caffeine
Synon: 1,3,7-trimethylpurine-2,6-dione
DB#: MSBNK-IPB_Halle-PB003781
InChIKey: RYYVLZVUVIJVGH-UHFFFAOYSA-N
InChI: InChI=1S/C8H10N4O2/c1-10-4-9-6-5(10)7(13)12(3)8(14)11(6)2/h4H,1-3H3
SMILES: CN1C=NC2=C1C(=O)N(C(=O)N2C)C
Precursor_type: [M+H]+
Spectrum_type: MS2
Instrument_type: LC-ESI-QQ
Instrument: TSQ 7000
Ion_mode: POSITIVE
Collision_energy: 25 eV
Formula: C8H10N4O2
MW: 194
ExactMass: 194.08038
Comments: Parent=-1
Splash: splash10-000i-2900000000-87822a5f5a6be99a2eaa
Num Peaks: 72
29.000 8
30.000 6
36.000 3
38.000 6
39.000 1
42.000 68
43.000 10
44.000 18
45.000 25
46.000 13
48.000 2
53.000 0
54.000 0
55.000 0
56.000 12
57.000 3
58.000 2
59.000 6
68.000 1
69.000 66
70.000 1
71.000 0
72.000 4
76.000 3
77.000 7
81.000 6
83.000 40
84.000 4
86.000 7
89.000 16
90.000 2
95.000 8
96.000 2
97.000 14
98.000 2
104.000 1
106.000 3
108.000 2
109.000 26
110.000 200
111.000 29
112.000 1
113.000 13
114.000 2
117.000 5
121.000 3
122.000 0
123.000 16
125.000 3
127.000 2
135.000 0
136.000 8
138.000 999
140.000 5
142.000 1
152.000 0
159.000 0
161.000 0
163.000 15
169.000 2
170.000 3
173.000 1
176.000 2
177.000 13
179.000 3
180.000 1
183.000 5
189.000 3
190.000 2
193.000 0
195.000 341
196.000 0

Name: N-Acetylindole
Synon: 1-indol-1-ylethanone
DB#: MSBNK-IPB_Halle-PB000493
InChIKey: UUCUQJHYUPXDHN-UHFFFAOYSA-N
InChI: InChI=1S/C10H9NO/c1-8(12)11-7-6-9-4-2-3-5-10(9)11/h2-7H,1H3
SMILES: CC(=O)N1C=CC2=CC=CC=C21
Precursor_type: [M+H]+
Spectrum_type: MS2
Instrument_type: LC-ESI-QTOF
Instrument: API QSTAR Pulsar i
Ion_mode: POSITIVE
Collision_energy: 35 eV
Formula: C10H9NO
MW: 159
ExactMass: 159.06841
Comments: Parent=-1
Splash: splash10-00kf-9700000000-82fcd74947c9de17bac4
Num Peaks: 5
43.018 561
65.039 10
91.055 795
117.057 106
118.067 999

Name: Proline
Synon: pyrrolidine-2-carboxylic acid
DB#: MSBNK-IPB_Halle-PB000450
InChIKey: ONIBWKKTOPOVIA-UHFFFAOYSA-N
InChI: InChI=1S/C5H9NO2/c7-5(8)4-2-1-3-6-4/h4,6H,1-3H2,(H,7,8)
SMILES: C1CC(NC1)C(=O)O
Precursor_type: [M+H]+
Spectrum_type: MS2
Instrument_type: LC-ESI-QTOF
Instrument: API QSTAR Pulsar i
Ion_mode: POSITIVE
Collision_energy: 15 eV
Formula: C5H9NO2
MW: 115
ExactMass: 115.06333
Comments: Parent=-1
Splash: splash10-01b9-8900000000-000cb5f6ae87b559450a
Num Peaks: 2
70.067 933
116.075 999

Name: Salsolinol
Synon: (1S)-1-methyl-1,2,3,4-tetrahydroisoquinoline-6,7-diol
DB#: MSBNK-IPB_Halle-PB002164
InChIKey: IBRKLUSXDYATLG-LURJTMIESA-N
InChI: InChI=1S/C10H13NO2/c1-6-8-5-10(13)9(12)4-7(8)2-3-11-6/h4-6,11-13H,2-3H2,1H3/t6-/m0/s1
SMILES: C[C@H]1C2=CC(=C(C=C2CCN1)O)O
Precursor_type: [M+H]+
Spectrum_type: MS2
Instrument_type: LC-ESI-QQ
Instrument: TSQ 7000
Ion_mode: POSITIVE
Collision_energy: 25 eV
Formula: C10H13NO2
MW: 179
ExactMass: 179.09463
Comments: Parent=-1
Splash: splash10-00kb-0900000000-6e9f53c92f9b3f912744
Num Peaks: 64
30.000 14
31.000 3
42.000 0
43.000 4
44.000 10
45.000 3
55.000 3
56.000 0
57.000 16
58.000 2
59.000 0
67.000 0
69.000 20
70.000 3
71.000 0
78.000 0
79.000 5
80.000 1
81.000 0
83.000 2
87.000 0
91.000 47
92.000 3
93.000 1
95.000 0
97.000 1
98.000 0
102.000 0
105.000 16
106.000 0
107.000 17
108.000 0
109.000 1
115.000 95
116.000 6
117.000 728
119.000 13
120.000 2
121.000 1
123.000 8
127.000 57
128.000 3
130.000 0
133.000 9
134.000 4
135.000 42
136.000 2
137.000 87
138.000 5
139.000 20
140.000 4
144.000 0
145.000 999
146.000 13
148.000 5
149.000 0
151.000 57
152.000 0
161.000 0
162.000 1
163.000 487
164.000 22
180.000 148
181.000 8

Name: Daidzein
Synon: 7-hydroxy-3-(4-hydroxyphenyl)chromen-4-one
DB#: MSBNK-IPB_Halle-PB000841
InChIKey: ZQSIJRDFPHDXIC-UHFFFAOYSA-N
InChI: InChI=1S/C15H10O4/c16-10-3-1-9(2-4-10)13-8-19-14-7-11(17)5-6-12(14)15(13)18/h1-8,16-17H
SMILES: C1=CC(=CC=C1C2=COC3=C(C2=O)C=CC(=C3)O)O
Precursor_type: [M+H]+
Spectrum_type: MS2
Instrument_type: LC-ESI-QTOF
Instrument: API QSTAR Pulsar i
Ion_mode: POSITIVE
Collision_energy: 25 eV
Formula: C15H10O4
MW: 254
ExactMass: 254.05791
Comments: Parent=-1
Splash: splash10-0a4i-0290000000-d64d585a2d69c5127b54
Num Peaks: 11
137.011 73
145.017 15
153.060 7
157.057 10
171.076 7
181.063 23
199.075 143
227.072 98
237.060 38
255.065 999
256.077 80

Name: Quercetin
Synon: 2-(3,4-dihydroxyphenyl)-3,5,7-trihydroxychromen-4-one
DB#: MSBNK-IPB_Halle-PB002409
InChIKey: REFJWTPEDVJJIY-UHFFFAOYSA-N
InChI: InChI=1S/C15H10O7/c16-7-4-10(19)12-11(5-7)22-15(14(21)13(12)20)6-1-2-8(17)9(18)3-6/h1-5,16-19,21H
SMILES: C1=CC(=C(C=C1C2=C(C(=O)C3=C(C=C(C=C3O2)O)O)O)O)O
Precursor_type: [M-H]-
Spectrum_type: MS2
Instrument_type: LC-ESI-QTOF
Instrument: API QSTAR Pulsar i
Ion_mode: NEGATIVE
Collision_energy: 15 eV
Formula: C15H10O7
MW: 302
ExactMass: 302.04265
Comments: Parent=-1
Splash: splash10-0udi-0009000000-fb7dfb09272d435ea607
Num Peaks: 3
151.006 31
178.998 39
301.029 999

Name: Aspartic acid
Synon: 2-aminobutanedioic acid
DB#: MSBNK-IPB_Halle-PB000453
InChIKey: CKLJMWTZIZZHCS-UHFFFAOYSA-N
InChI: InChI=1S/C4H7NO4/c5-2(4(8)9)1-3(6)7/h2H,1,5H2,(H,6,7)(H,8,9)
SMILES: C(C(C(=O)O)N)C(=O)O
Precursor_type: [M+H]+
Spectrum_type: MS2
Instrument_type: LC-ESI-QTOF
Instrument: API QSTAR Pulsar i
Ion_mode: POSITIVE
Collision_energy: 15 eV
Formula: C4H7NO4
MW: 133
ExactMass: 133.03751
Comments: Parent=-1
Splash: splash10-0079-9300000000-39d63d0ff6bf5fe99557
Num Peaks: 7
43.018 7
46.028 60
70.027 42
74.023 851
88.037 999
116.034 368
134.043 319

Name: Naringenin chalcone
Synon: 3-(4-hydroxyphenyl)-1-(2,4,6-trihydroxyphenyl)prop-2-en-1-one
DB#: MSBNK-IPB_Halle-PB002406
InChIKey: YQHMWTPYORBCMF-ZZXKWVIFSA-N
InChI: InChI=1S/C15H12O5/c16-10-4-1-9(2-5-10)3-6-12(18)15-13(19)7-11(17)8-14(15)20/h1-8,16-17,19-20H/b6-3+
SMILES: C1=CC(=CC=C1/C=C/C(=O)C2=C(C=C(C=C2O)O)O)O
Precursor_type: [M-H]-
Spectrum_type: MS2
Instrument_type: LC-ESI-QTOF
Instrument: API QSTAR Pulsar i
Ion_mode: NEGATIVE
Collision_energy: 25 eV
Formula: C15H12O5
MW: 272
ExactMass: 272.06847
Comments: Parent=-1
Splash: splash10-0udi-0910000000-afe3bb20e73181050052
Num Peaks: 15
65.004 8
83.013 17
93.035 79
107.016 178
119.050 474
125.024 17
145.031 16
151.002 999
165.020 66
169.012 21
177.017 136
185.058 19
187.038 18
227.071 50
271.061 381

Name: Reserpine
Synon: methyl (1R,15S,17R,18R,19S,20S)-6,18-dimethoxy-17-[(3,4,5-trimethoxyphenyl)carbonyloxy]- 3,13-diazapentacyclo[11.8.0.02,10.04,9.015,20]henicosa-2(10),4(9),5,7-tetraene-19-carboxylate
DB#: MSBNK-IPB_Halle-PB005761
InChIKey: QEVHRUUCFGRFIF-MDEJGZGSSA-N
InChI: InChI=1S/C33H40N2O9/c1-38-19-7-8-20-21-9-10-35-16-18-13-27(44-32(36)17-11-25(39-2)30(41-4)26(12-17)40-3)31(42-5)28(33(37)43-6)22(18)15-24(35)29(21)34-23(20)14-19/h7-8,11-12,14,18,22,24,27-28,31,34H,9-10,13,15-16H2,1-6H3/t18-,22+,24-,27-,28+,31+/m1/s1
SMILES: CO[C@H]1[C@@H](C[C@@H]2CN3CCC4=C([C@H]3C[C@@H]2[C@@H]1C(=O)OC)NC5=C4C=CC(=C5)OC)OC(=O)C6=CC(=C(C(=C6)OC)OC)OC
Precursor_type: [M+H]+
Spectrum_type: MS2
Instrument_type: LC-ESI-QTOF
Instrument: micrOTOF-Q
Ion_mode: POSITIVE
Collision_energy: 15 eV
Formula: C33H40N2O9
MW: 608
ExactMass: 608.27338
Comments: Parent=-1
Splash: splash10-0a4i-0000009000-ff4084f4af36b83b2568
Num Peaks: 13
174.089 0
195.063 4
236.124 0
365.179 1
397.207 39
398.209 5
448.191 2
577.247 1
608.788 0
609.273 999
609.855 0
610.276 254
611.278 11

Name: Genistein C,O-diglucoside malonylated
DB#: MSBNK-IPB_Halle-PN000034
InChI: N/A
SMILES: N/A
Precursor_type: [M-H]-
Spectrum_type: MS2
PrecursorMZ: 679.154
Instrument_type: ESI-TOF
Instrument: micrOTOF-Q
Ion_mode: NEGATIVE
Collision_energy: 25 eV
Formula: C30H32O18
MW: 680
ExactMass: 680.158864184
Comments: Parent=679.154
Splash: splash10-001i-0000942000-ac12e2af5b31a7bffe70
Num Peaks: 20
311.0562 27
312.0659 6
341.0674 4
353.0622 4
413.0891 5
431.1012 999
432.1041 168
433.1091 25
434.1158 4
473.1128 29
474.1199 5
515.1227 456
516.1252 94
517.1332 15
518.1279 2
545.1293 5
635.1641 293
636.1668 73
637.1719 20
638.1694 3

Name: Marchantin G 5
Synon: Marchantin G
Synon: 4,5,17-trihydroxy-2,15-dioxapentacyclo[22.2.2.13,7.110,14.016,21]triaconta-1(26),3(30),4,6,10(29),11,13,16(21),17,19,24,27-dodecaen-8-one
DB#: MSBNK-IPB_Halle-PB010801
InChIKey: CUIZSIJMLPQKRE-UHFFFAOYSA-N
InChI: InChI=1S/C28H22O6/c29-23-6-2-4-19-10-7-17-8-11-21(12-9-17)33-26-16-20(15-25(31)27(26)32)24(30)14-18-3-1-5-22(13-18)34-28(19)23/h1-6,8-9,11-13,15-16,29,31-32H,7,10,14H2
SMILES: C1CC2=C(C(=CC=C2)O)OC3=CC=CC(=C3)CC(=O)C4=CC(=C(C(=C4)O)O)OC5=CC=C1C=C5
Precursor_type: [M+H]+
Spectrum_type: MS2
PrecursorMZ: 455.1489
Instrument_type: LC-ESI-QTOF
Instrument: Bruker MicrOTOF-Q
Ion_mode: POSITIVE
Collision_energy: 31.6361675
Formula: C28H22O6
MW: 454
ExactMass: 454.142
Comments: Parent=455.1489
Splash: splash10-02vm-0391000000-80ad0633246ea7db52b0
Num Peaks: 187
107.05 1
115.05 2
119.05 4
120.05 7
121.06 9
123.04 67
124.04 5
125.03 3
128.06 3
129.07 2
131.05 9
132.06 2
135.04 8
136.05 2
137.02 10
139.04 3
141.07 13
142.07 3
143.08 2
145.06 3
147.04 9
151.05 2
152.06 9
153.07 12
154.08 3
155.08 5
157.07 7
159.08 8
164.06 1
165.07 32
166.08 22
167.09 57
168.06 7
169.06 117
170.07 19
171.08 25
172.09 4
173.06 7
174.06 1
176.06 2
177.07 17
178.08 13
179.08 60
180.09 26
181.07 51
182.07 27
183.08 57
184.07 7
185.09 31
186.08 5
186.1 2
187.08 65
188.08 9
189.07 2
190.06 1
191.09 4
192.09 12
193.07 11
194.07 34
194.98 1
195.08 176
196.08 48
197.06 320
198.07 136
199.08 257
200.08 41
201.07 2
201.08 3
202.09 1
203.07 2
205.06 4
206.07 2
207.08 45
208.09 31
209.09 44
210.07 162
211.08 395
212.08 100
213.09 387
214.07 70
215.07 999
216.07 136
217.08 14
218.07 2
219.07 2
221.06 5
222.06 3
222.08 1
223.08 114
224.08 44
225.09 284
226.08 58
227.07 290
228.08 76
229.08 135
230.08 20
231.06 1
231.07 3
233.09 1
234.07 4
235.08 60
236.08 11
237.05 1
237.08 2
238.07 1
239.07 25
239.96 1
240.08 13
241.09 756
242.09 135
243.08 17
244.08 2
244.09 1
245.09 3
246.1 2
247.08 3
249.09 3
253.09 15
255.07 33
256.07 6
257.09 4
259.11 5
261.09 2
263.1 2
265.09 3
269.09 9
270.1 2
271.11 3
272.09 2
273.09 8
274.09 4
275.11 4
277.1 2
277.12 2
284.12 3
285.09 6
286.1 4
287.11 24
288.11 10
289.12 4
291.1 11
292.1 4
293.11 2
297.09 6
298.1 4
299.11 12
300.09 5
301.1 14
302.13 41
303.11 39
304.11 21
305.12 43
306.12 12
307.1 7
308.1 3
315.1 29
316.11 23
317.12 32
318.12 18
319.1 67
320.1 29
321.11 31
322.11 6
323.11 2
329.08 3
330.1 2
331.1 4
333.11 86
334.12 110
335.12 24
336.11 9
337.1 2
343.09 1
344.1 2
347.1 9
348.1 5
349.11 4
381.15 6
399.17 2
409.14 33
410.15 9
411.15 2
427.16 54
429.16 2
437.14 10
438.14 2
455.15 26

Name: Quercetin
Synon: 2-(3,4-dihydroxyphenyl)-3,5,7-trihydroxychromen-4-one
DB#: MSBNK-IPB_Halle-PB006204
InChIKey: REFJWTPEDVJJIY-UHFFFAOYSA-N
InChI: InChI=1S/C15H10O7/c16-7-4-10(19)12-11(5-7)22-15(14(21)13(12)20)6-1-2-8(17)9(18)3-6/h1-5,16-19,21H
SMILES: C1=CC(=C(C=C1C2=C(C(=O)C3=C(C=C(C=C3O2)O)O)O)O)O
Precursor_type: [M+H]+
Spectrum_type: MS2
Instrument_type: LC-ESI-QTOF
Instrument: micrOTOF-Q
Ion_mode: POSITIVE
Collision_energy: 10 eV
Formula: C15H10O7
MW: 302
ExactMass: 302.04265
Comments: Parent=-1
Splash: splash10-0udi-0009000000-05f27218845a61a2bfe0
Num Peaks: 11
229.046 1
257.041 1
274.042 0
285.035 0
302.035 1
302.719 0
302.835 0
303.046 999
303.416 0
304.049 121
305.052 3

Name: Valine
Synon: 2-amino-3-methylbutanoic acid
DB#: MSBNK-IPB_Halle-PB000391
InChIKey: KZSNJWFQEVHDMF-UHFFFAOYSA-N
InChI: InChI=1S/C5H11NO2/c1-3(2)4(6)5(7)8/h3-4H,6H2,1-2H3,(H,7,8)
SMILES: CC(C)C(C(=O)O)N
Precursor_type: [M+H]+
Spectrum_type: MS2
Instrument_type: LC-ESI-QTOF
Instrument: API QSTAR Pulsar i
Ion_mode: POSITIVE
Collision_energy: 55 eV
Formula: C5H11NO2
MW: 117
ExactMass: 117.07898
Comments: Parent=-1
Splash: splash10-0a4i-9000000000-b36441ffab237837721c
Num Peaks: 17
37.007 4
38.013 4
39.024 225
41.040 89
42.035 670
43.019 65
44.051 65
44.997 49
45.035 119
53.042 122
55.057 521
56.052 999
57.060 946
58.067 22
59.051 32
69.034 1
72.084 30

Name: 5-Hydroxyindole-3-acetic acid
Synon: 2-(5-hydroxy-1H-indol-3-yl)acetic acid
DB#: MSBNK-IPB_Halle-PB001383
InChIKey: DUUGKQCEGZLZNO-UHFFFAOYSA-N
InChI: InChI=1S/C10H9NO3/c12-7-1-2-9-8(4-7)6(5-11-9)3-10(13)14/h1-2,4-5,11-12H,3H2,(H,13,14)
SMILES: C1=CC2=C(C=C1O)C(=CN2)CC(=O)O
Precursor_type: [M+H]+
Spectrum_type: MS2
Instrument_type: LC-ESI-QTOF
Instrument: API QSTAR Pulsar i
Ion_mode: POSITIVE
Collision_energy: 40 eV
Formula: C10H9NO3
MW: 191
ExactMass: 191.05824
Comments: Parent=-1
Splash: splash10-00kb-2900000000-cfd13de59166ffab39ff
Num Peaks: 41
39.022 3
41.033 3
53.031 2
58.074 2
65.034 36
67.057 3
75.022 4
77.041 12
78.045 7
79.046 2
80.013 2
81.072 3
82.080 1
89.040 2
91.054 455
92.068 8
95.045 2
101.042 10
102.030 2
103.052 16
104.047 5
105.055 5
106.063 1
116.053 31
117.059 201
118.067 357
119.052 253
120.050 17
128.050 93
129.054 15
130.048 7
133.051 21
134.072 3
144.022 4
144.045 9
145.045 5
145.941 3
146.060 999
147.064 22
148.032 4
168.933 1

Name: Syringaldehyde
Synon: 4-hydroxy-3,5-dimethoxybenzaldehyde
DB#: MSBNK-IPB_Halle-PB000622
InChIKey: KCDXJAYRVLXPFO-UHFFFAOYSA-N
InChI: InChI=1S/C9H10O4/c1-12-7-3-6(5-10)4-8(13-2)9(7)11/h3-5,11H,1-2H3
SMILES: COC1=CC(=CC(=C1O)OC)C=O
Precursor_type: [M+H]+
Spectrum_type: MS2
Instrument_type: LC-ESI-QTOF
Instrument: API QSTAR Pulsar i
Ion_mode: POSITIVE
Collision_energy: 45 eV
Formula: C9H10O4
MW: 182
ExactMass: 182.05791
Comments: Parent=-1
Splash: splash10-00or-9000000000-03822b23e64682ed8879
Num Peaks: 17
39.024 46
41.040 85
51.026 113
52.034 130
55.020 96
65.040 676
66.045 29
67.056 155
69.036 23
77.042 999
79.020 30
80.029 113
95.054 278
97.034 293
105.048 35
107.016 47
125.026 156

Name: Spermidine
Synon: N-(3-aminopropyl)butane-1,4-diamine
DB#: MSBNK-IPB_Halle-PB000483
InChIKey: ATHGHQPFGPMSJY-UHFFFAOYSA-N
InChI: InChI=1S/C7H19N3/c8-4-1-2-6-10-7-3-5-9/h10H,1-9H2
SMILES: C(CCNCCCN)CN
Precursor_type: [M+H]+
Spectrum_type: MS2
Instrument_type: LC-ESI-QTOF
Instrument: API QSTAR Pulsar i
Ion_mode: POSITIVE
Collision_energy: 15 eV
Formula: C7H19N3
MW: 145
ExactMass: 145.15790
Comments: Parent=-1
Splash: splash10-0092-5900000000-4bd537f0811cc264f2cb
Num Peaks: 9
58.067 33
72.082 904
75.093 161
84.084 10
112.115 216
118.070 81
129.141 424
146.063 152
146.168 999

Name: Threonine
Synon: 2-amino-3-hydroxybutanoic acid
DB#: MSBNK-IPB_Halle-PB000403
InChIKey: AYFVYJQAPQTCCC-UHFFFAOYSA-N
InChI: InChI=1S/C4H9NO3/c1-2(6)3(5)4(7)8/h2-3,6H,5H2,1H3,(H,7,8)
SMILES: CC(C(C(=O)O)N)O
Precursor_type: [M+H]+
Spectrum_type: MS2
Instrument_type: LC-ESI-QTOF
Instrument: API QSTAR Pulsar i
Ion_mode: POSITIVE
Collision_energy: 10 eV
Formula: C4H9NO3
MW: 119
ExactMass: 119.05824
Comments: Parent=-1
Splash: splash10-00di-2900000000-f6611e960c630fb6b46d
Num Peaks: 4
56.051 16
74.061 290
102.056 213
120.067 999

Name: Marchantin E
Synon: 8-methoxy-2,15-dioxapentacyclo[22.2.2.13,7.110,14.016,21]triaconta-1(26),3(30),4,6,10(29),11,13,16(21),17,19,24,27-dodecaene-4,5,17-triol
DB#: MSBNK-IPB_Halle-PB011701
InChIKey: FMXHHHCREWAZNN-UHFFFAOYSA-N
InChI: InChI=1S/C29H26O6/c1-33-26-15-19-4-2-6-23(14-19)35-29-20(5-3-7-24(29)30)11-8-18-9-12-22(13-10-18)34-27-17-21(26)16-25(31)28(27)32/h2-7,9-10,12-14,16-17,26,30-32H,8,11,15H2,1H3
SMILES: COC1CC2=CC(=CC=C2)OC3=C(CCC4=CC=C(C=C4)OC5=C(C(=CC1=C5)O)O)C=CC=C3O
Precursor_type: [M+H]+
Spectrum_type: MS2
PrecursorMZ: 471.1802
Instrument_type: LC-ESI-QTOF
Instrument: Bruker MicrOTOF-Q
Ion_mode: POSITIVE
Collision_energy: 32.838515
Formula: C29H26O6
MW: 470
ExactMass: 470.173
Comments: Parent=471.1802
Splash: splash10-00ou-0191000000-79f92a21d26002d7667f
Num Peaks: 236
107.05 3
115.05 3
117.07 8
119.05 8
121.06 29
122.04 5
123.04 26
124.05 8
125.02 3
128.06 3
129.07 5
131.05 10
133.03 10
133.06 9
134.03 5
135.04 46
136.05 39
137.06 186
138.06 12
139.04 9
141.07 4
144.06 3
145.06 7
147.05 4
149.06 32
150.07 25
151.07 64
152.07 10
153.06 25
154.07 5
155.08 13
157.07 8
159.08 5
161.06 4
162.07 5
163.07 8
165.07 58
166.07 16
167.08 24
168.06 25
169.06 41
170.07 8
171.08 14
175.08 9
176.08 3
177.06 3
177.07 6
178.07 10
179.09 24
180.09 6
181.07 119
182.07 39
183.08 238
184.08 38
185.07 3
185.09 10
186.07 3
187.08 13
188.08 3
190.07 3
191.08 28
192.09 7
193.07 30
194.07 38
195.08 87
196.05 260
197.06 179
198.07 34
199.07 107
200.08 31
201.09 23
202.1 3
203.08 3
207.08 34
208.09 20
209.07 179
210.07 133
211.08 649
212.08 156
213.06 112
214.07 47
215.07 468
216.08 70
217.09 10
217.1 7
218.08 3
219.08 26
220.09 15
221.1 7
222.07 43
223.08 134
224.08 72
225.09 174
226.09 200
227.07 711
227.97 3
228.08 336
228.98 3
229.09 999
230.09 162
231.09 23
232.1 3
233.09 3
235.08 13
236.08 9
236.15 19
237.09 174
238.1 88
239.07 161
240.08 250
241.09 791
242.09 254
243.1 406
244.1 72
245.1 8
246.11 2
247.08 4
249.09 4
251.1 13
252.08 4
253.09 93
254 2
254.09 803
255.1 702
256.1 117
257.11 47
258.1 12
259.12 137
260.12 17
261.13 15
262.14 2
263.1 2
264.08 2
265.09 8
266.1 4
267.1 10
268.1 4
268.97 2
269.12 831
270.12 147
271.11 35
272.1 4
273.12 7
274.12 2
275.11 7
277.1 3
279.1 6
281.09 3
281.11 2
282.1 2
282.19 8
283.11 12
284.1 5
285.1 8
286.1 12
287.1 18
288.11 6
289.11 8
290.12 4
291.11 6
293.11 2
295.11 2
297.1 5
298.1 7
299.11 51
300.11 20
301.12 33
302.12 5
303.1 17
304.11 6
305.12 9
307.13 3
309.1 4
311.11 13
312.11 4
313.1 8
313.11 6
314.11 14
314.12 4
315.1 31
316.11 13
317.12 58
318.12 17
319.13 21
320.14 6
321.13 4
327.1 12
328.11 4
329.12 29
330.11 9
330.12 3
331.11 39
332.13 34
333.11 103
334.12 29
335.13 158
336.13 32
337.13 6
344.11 9
345.11 33
346.13 26
347.13 58
348.13 19
349.14 30
350.15 15
351.15 3
359.13 15
360.14 20
361.13 10
362.12 5
362.15 3
363.12 139
364.13 33
365.14 23
375.11 3
376.13 3
377.14 44
378.15 84
379.15 21
380.15 3
383.16 2
393.15 5
421.14 12
422.15 4
423.16 5
425.17 4
435.16 3
437.14 3
438.15 4
439.15 32
440.16 17
453.17 20
454.17 6
469.17 8
470.17 3
471.18 27

Name: Genistein 4',7-O-diglucoside dimalonylated
DB#: MSBNK-IPB_Halle-PN000043
InChI: N/A
SMILES: N/A
Precursor_type: [M-H]-
Spectrum_type: MS2
PrecursorMZ: 765.159
Instrument_type: ESI-TOF
Instrument: micrOTOF-Q
Ion_mode: NEGATIVE
Collision_energy: 25 eV
Formula: C33H34O21
MW: 766
ExactMass: 766.159258108
Comments: Parent=765.159
Splash: splash10-00di-0000900000-663c916b1bdd9bf90d1b
Num Peaks: 3
473.1095 999
474.1186 237
475.1181 42

Name: Caffeoylcholine
Synon: 2-[(E)-3-(3,4-dihydroxyphenyl)prop-2-enoyl]oxyethyl-trimethylazanium
DB#: MSBNK-IPB_Halle-PB000318
InChIKey: HLGBXKIGYXVIFU-UHFFFAOYSA-O
InChI: InChI=1S/C14H19NO4/c1-15(2,3)8-9-19-14(18)7-5-11-4-6-12(16)13(17)10-11/h4-7,10H,8-9H2,1-3H3,(H-,16,17,18)/p+1
SMILES: C[N+](C)(C)CCOC(=O)C=CC1=CC(=C(C=C1)O)O
Precursor_type: [M]+
Spectrum_type: MS2
Instrument_type: LC-ESI-QTOF
Instrument: API QSTAR Pulsar i
Ion_mode: POSITIVE
Collision_energy: 15 eV
Formula: [C14H20NO4]+
MW: 266
ExactMass: 266.13923
Comments: Parent=-1
Splash: splash10-066r-0090000000-56dee3198bd1de324e32
Num Peaks: 2
207.066 618
266.143 999

Name: Resveratrol
Synon: 5-[(E)-2-(4-hydroxyphenyl)ethenyl]benzene-1,3-diol
DB#: MSBNK-IPB_Halle-PB002423
InChIKey: LUKBXSAWLPMMSZ-OWOJBTEDSA-N
InChI: InChI=1S/C14H12O3/c15-12-5-3-10(4-6-12)1-2-11-7-13(16)9-14(17)8-11/h1-9,15-17H/b2-1+
SMILES: C1=CC(=CC=C1/C=C/C2=CC(=CC(=C2)O)O)O
Precursor_type: [M-H]-
Spectrum_type: MS2
Instrument_type: LC-ESI-QTOF
Instrument: API QSTAR Pulsar i
Ion_mode: NEGATIVE
Collision_energy: 40 eV
Formula: C14H12O3
MW: 228
ExactMass: 228.07864
Comments: Parent=-1
Splash: splash10-0006-0900000000-b1333b06db343c38f529
Num Peaks: 17
93.031 16
115.053 142
117.032 133
119.048 79
141.070 28
143.049 999
145.029 13
156.058 27
157.066 42
159.081 41
167.050 16
180.056 27
181.064 61
182.071 57
183.075 35
184.051 15
185.057 79

Name: Choline
Synon: 2-hydroxyethyl-trimethylazanium
DB#: MSBNK-IPB_Halle-PB001603
InChIKey: OEYIOHPDSNJKLS-UHFFFAOYSA-N
InChI: InChI=1S/C5H14NO/c1-6(2,3)4-5-7/h7H,4-5H2,1-3H3/q+1
SMILES: C[N+](C)(C)CCO
Precursor_type: [M]+
Spectrum_type: MS2
Instrument_type: LC-ESI-QQ
Instrument: TSQ 7000
Ion_mode: POSITIVE
Collision_energy: 25 eV
Formula: [C5H14NO]+
MW: 104
ExactMass: 104.10754
Comments: Parent=-1
Splash: splash10-03di-9200000000-fe62d5a4fbf492493d60
Num Peaks: 8
58.000 252
59.000 131
60.000 999
71.000 0
86.000 1
88.000 2
103.000 2
104.000 341

Name: Rotenone
Synon: (2R,6aS,12aS)-1,2,6,6a,12,12a-hexahydro-2-isopropenyl-8,9-dimethoxychromeno[3,4-b]furo(2,3-h)chromen-6-one
DB#: MSBNK-IPB_Halle-PB005743
InChIKey: JUVIOZPCNVVQFO-HBGVWJBISA-N
InChI: InChI=1S/C23H22O6/c1-11(2)16-8-14-15(28-16)6-5-12-22(24)21-13-7-18(25-3)19(26-4)9-17(13)27-10-20(21)29-23(12)14/h5-7,9,16,20-21H,1,8,10H2,2-4H3/t16-,20-,21+/m1/s1
SMILES: CC(=C)[C@H]1CC2=C(O1)C=CC3=C2O[C@@H]4COC5=CC(=C(C=C5[C@@H]4C3=O)OC)OC
Precursor_type: [M+H]+
Spectrum_type: MS2
Instrument_type: LC-ESI-QTOF
Instrument: micrOTOF-Q
Ion_mode: POSITIVE
Collision_energy: 20 eV
Formula: C23H22O6
MW: 394
ExactMass: 394.14164
Comments: Parent=-1
Splash: splash10-03dm-0795000000-228bd7c35bed240b45ad
Num Peaks: 165
123.042 0
124.049 6
133.023 0
133.060 3
134.068 0
135.042 15
136.050 3
137.059 3
139.074 81
140.074 4
144.056 0
145.063 1
147.043 2
147.077 19
148.049 1
148.083 0
149.020 1
149.061 0
150.062 1
151.074 13
152.050 0
153.052 3
155.069 7
159.043 2
161.032 1
161.056 17
162.065 16
163.068 4
165.054 0
165.072 0
165.089 5
167.068 169
168.073 8
169.062 1
171.074 7
172.084 0
173.059 0
174.058 0
175.041 1
175.073 11
176.043 4
177.052 13
178.060 12
179.068 175
180.073 11
181.051 4
183.065 1
185.060 1
185.090 4
187.035 0
189.088 121
190.093 12
191.067 116
191.317 0
192.076 559
192.149 0
192.204 0
192.226 0
193.081 115
194.085 7
195.076 54
196.081 4
197.054 1
198.066 23
199.068 5
201.087 5
203.067 353
204.070 35
205.044 1
205.073 0
207.066 2
207.098 1
209.094 0
211.075 3
212.084 0
213.088 999
213.228 0
214.091 122
215.076 3
215.101 9
216.114 0
217.085 5
218.091 1
219.062 35
220.070 54
221.078 3
221.111 10
223.072 14
224.073 0
226.065 3
227.067 5
227.096 0
229.082 20
230.082 2
231.089 0
233.111 3
241.082 363
241.178 1
241.211 0
242.086 41
243.104 1
244.101 0
245.110 4
257.113 3
259.094 2
275.103 0
283.076 0
289.125 0
294.086 0
295.059 0
296.098 0
298.081 0
299.087 7
300.102 0
307.092 0
307.123 2
309.068 4
311.088 9
312.095 17
313.097 3
317.111 1
321.108 6
323.083 0
324.095 0
325.098 0
327.081 25
328.084 3
331.103 0
335.124 14
336.129 12
337.088 1
337.131 4
339.149 4
340.155 1
346.114 1
349.128 8
350.136 1
351.119 1
352.127 6
353.116 2
359.128 1
359.649 0
362.113 1
363.121 2
364.123 13
365.132 14
366.137 3
367.148 158
367.269 1
368.150 35
368.239 0
369.152 0
377.133 50
378.137 7
380.121 5
381.129 0
394.806 0
395.143 773
395.321 2
395.544 0
395.720 0
395.805 0
396.147 167
396.325 0
397.152 7

Name: Chelidonin
Synon: (+)-Chelidonine
Synon: [1,3]Benzodioxolo[5,6-c]-1,3-dioxolo[4,5-i]phenanthridin-6-ol, 5b,6,7,12b,13,14-hexahydro-13-methyl-, (5bR,6S,12bS)-
DB#: MSBNK-IPB_Halle-PB005903
InChIKey: GHKISGDRQRSCII-ZOCIIQOWSA-N
InChI: InChI=1S/C20H19NO5/c1-21-7-13-11(2-3-15-20(13)26-9-23-15)18-14(22)4-10-5-16-17(25-8-24-16)6-12(10)19(18)21/h2-3,5-6,14,18-19,22H,4,7-9H2,1H3/t14-,18-,19+/m0/s1
SMILES: CN1CC2=C(C=CC3=C2OCO3)[C@@H]4[C@H]1C5=CC6=C(C=C5C[C@@H]4O)OCO6
Precursor_type: [M+H]+
Spectrum_type: MS2
Instrument_type: LC-ESI-QTOF
Instrument: micrOTOF-Q
Ion_mode: POSITIVE
Collision_energy: 20 eV
Formula: C20H19NO5
MW: 353
ExactMass: 353.126323
Comments: Parent=-1
Splash: splash10-004i-0094000000-93fd1884695e2a341d39
Num Peaks: 54
135.042 21
136.047 0
143.047 0
149.022 0
151.037 0
159.042 1
161.058 8
163.037 16
164.040 0
173.057 3
175.037 0
176.068 4
187.037 0
188.068 8
189.068 1
207.078 1
217.062 10
218.066 0
219.077 0
235.073 7
236.074 0
237.087 12
238.090 0
245.056 11
246.060 1
247.072 170
248.075 22
249.087 1
251.067 0
263.067 5
264.068 0
265.082 36
266.083 4
267.062 2
275.066 999
276.070 147
277.077 4
279.060 2
293.077 34
294.081 4
295.092 84
296.095 11
305.076 228
306.080 38
307.092 6
308.094 0
321.088 0
323.087 191
324.090 31
334.103 0
336.118 77
337.122 11
354.129 158
355.132 27

Name: Chrysoeriol O-glucoside malonylated
DB#: MSBNK-IPB_Halle-PN000038
InChI: N/A
SMILES: N/A
Precursor_type: [M+H]+
Spectrum_type: MS2
PrecursorMZ: 549.127
Instrument_type: ESI-TOF
Instrument: micrOTOF-Q
Ion_mode: POSITIVE
Collision_energy: 15 eV
Formula: C25H24O14
MW: 548
ExactMass: 548.116605448
Comments: Parent=549.127
Splash: splash10-0udi-0009020000-3f3763f8312d99598d5e
Num Peaks: 6
301.0708 999
302.0746 186
303.0826 73
463.1248 110
549.1300 245
550.1268 40

Name: Chrysoeriol O-diglucoside
DB#: MSBNK-IPB_Halle-PN000036
InChI: N/A
SMILES: N/A
Precursor_type: [M+H]+
Spectrum_type: MS2
PrecursorMZ: 625.18
Instrument_type: ESI-TOF
Instrument: micrOTOF-Q
Ion_mode: POSITIVE
Collision_energy: 15 eV
Formula: C28H32O16
MW: 624
ExactMass: 624.169034944
Comments: Parent=625.18
Splash: splash10-03di-0000900000-1ce18c0e6f4a812efa51
Num Peaks: 1
463.1203 999

Name: Resveratrol
Synon: 5-[(E)-2-(4-hydroxyphenyl)ethenyl]benzene-1,3-diol
DB#: MSBNK-IPB_Halle-PB002421
InChIKey: LUKBXSAWLPMMSZ-OWOJBTEDSA-N
InChI: InChI=1S/C14H12O3/c15-12-5-3-10(4-6-12)1-2-11-7-13(16)9-14(17)8-11/h1-9,15-17H/b2-1+
SMILES: C1=CC(=CC=C1/C=C/C2=CC(=CC(=C2)O)O)O
Precursor_type: [M-H]-
Spectrum_type: MS2
Instrument_type: LC-ESI-QTOF
Instrument: API QSTAR Pulsar i
Ion_mode: NEGATIVE
Collision_energy: 15 eV
Formula: C14H12O3
MW: 228
ExactMass: 228.07864
Comments: Parent=-1
Splash: splash10-004i-0090000000-d9def7cee71fb7a40786
Num Peaks: 3
158.979 14
185.061 14
227.068 999

Name: Biochanin A glucosylglucoside dimalonylated
DB#: MSBNK-IPB_Halle-PN000097
InChI: N/A
SMILES: N/A
Precursor_type: [M+H]+
Spectrum_type: MS2
PrecursorMZ: 781.185
Instrument_type: ESI-TOF
Instrument: micrOTOF-Q
Ion_mode: POSITIVE
Collision_energy: 15 eV
Formula: C34H36O21
MW: 780
ExactMass: 780.174908172
Comments: Parent=781.185
Splash: splash10-001r-0090020700-b0a38a8696f319b9fce3
Num Peaks: 6
285.0757 999
286.0774 129
533.1302 318
781.1884 604
782.1866 246
783.1859 93

Name: Biochanin A 8-C-glucoside malonylated
DB#: MSBNK-IPB_Halle-PN000084
InChI: N/A
SMILES: N/A
Precursor_type: [M+H]+
Spectrum_type: MS2
PrecursorMZ: 533.134
Instrument_type: ESI-TOF
Instrument: micrOTOF-Q
Ion_mode: POSITIVE
Collision_energy: 15 eV
Formula: C25H24O13
MW: 532
ExactMass: 532.1216908279999
Comments: Parent=533.134
Splash: splash10-001i-0007890000-c4f8b2104c393d3e2263
Num Peaks: 37
285.0754 27
297.0771 46
309.0767 153
310.0783 27
327.0897 462
328.0914 87
351.0877 230
352.0941 52
357.0975 72
365.1019 44
369.0985 29
375.0871 95
381.1007 23
393.1021 233
394.1078 62
411.1123 144
412.1096 40
429.1234 112
430.1237 39
447.1289 76
453.1212 380
454.1248 79
455.1227 25
471.1352 361
472.1382 90
479.1085 33
489.1461 139
490.1461 32
497.1098 184
498.1157 52
515.1238 426
516.1268 111
517.1367 26
533.1334 999
534.1382 289
535.1410 101
660.8069 25

Name: Proline
Synon: pyrrolidine-2-carboxylic acid
DB#: MSBNK-IPB_Halle-PB000449
InChIKey: ONIBWKKTOPOVIA-UHFFFAOYSA-N
InChI: InChI=1S/C5H9NO2/c7-5(8)4-2-1-3-6-4/h4,6H,1-3H2,(H,7,8)
SMILES: C1CC(NC1)C(=O)O
Precursor_type: [M+H]+
Spectrum_type: MS2
Instrument_type: LC-ESI-QTOF
Instrument: API QSTAR Pulsar i
Ion_mode: POSITIVE
Collision_energy: 10 eV
Formula: C5H9NO2
MW: 115
ExactMass: 115.06333
Comments: Parent=-1
Splash: splash10-014i-0900000000-c4b889ece4c7b298c7b4
Num Peaks: 2
70.067 68
116.075 999

Name: Daidzein
Synon: 7-hydroxy-3-(4-hydroxyphenyl)chromen-4-one
DB#: MSBNK-IPB_Halle-PB000821
InChIKey: ZQSIJRDFPHDXIC-UHFFFAOYSA-N
InChI: InChI=1S/C15H10O4/c16-10-3-1-9(2-4-10)13-8-19-14-7-11(17)5-6-12(14)15(13)18/h1-8,16-17H
SMILES: C1=CC(=CC=C1C2=COC3=C(C2=O)C=CC(=C3)O)O
Precursor_type: [M+H]+
Spectrum_type: MS2
Instrument_type: LC-ESI-QTOF
Instrument: API QSTAR Pulsar i
Ion_mode: POSITIVE
Collision_energy: 15 eV
Formula: C15H10O4
MW: 254
ExactMass: 254.05791
Comments: Parent=-1
Splash: splash10-0a4i-0090000000-7981137e233e44728663
Num Peaks: 3
254.856 11
255.065 999
256.079 82

Name: 3-Formylindole
Synon: 1H-indole-3-carbaldehyde
DB#: MSBNK-IPB_Halle-PB000506
InChIKey: OLNJUISKUQQNIM-UHFFFAOYSA-N
InChI: InChI=1S/C9H7NO/c11-6-7-5-10-9-4-2-1-3-8(7)9/h1-6,10H
SMILES: C1=CC=C2C(=C1)C(=CN2)C=O
Precursor_type: [M+H]+
Spectrum_type: MS2
Instrument_type: LC-ESI-QTOF
Instrument: API QSTAR Pulsar i
Ion_mode: POSITIVE
Collision_energy: 15 eV
Formula: C9H7NO
MW: 145
ExactMass: 145.05276
Comments: Parent=-1
Splash: splash10-00kb-0900000000-597c804d77e9a7930c9e
Num Peaks: 2
118.069 555
146.062 999

Name: 5-Hydroxyindole-3-acetic acid
Synon: 2-(5-hydroxy-1H-indol-3-yl)acetic acid
DB#: MSBNK-IPB_Halle-PB001382
InChIKey: DUUGKQCEGZLZNO-UHFFFAOYSA-N
InChI: InChI=1S/C10H9NO3/c12-7-1-2-9-8(4-7)6(5-11-9)3-10(13)14/h1-2,4-5,11-12H,3H2,(H,13,14)
SMILES: C1=CC2=C(C=C1O)C(=CN2)CC(=O)O
Precursor_type: [M+H]+
Spectrum_type: MS2
Instrument_type: LC-ESI-QTOF
Instrument: API QSTAR Pulsar i
Ion_mode: POSITIVE
Collision_energy: 25 eV
Formula: C10H9NO3
MW: 191
ExactMass: 191.05824
Comments: Parent=-1
Splash: splash10-0002-0900000000-1fa35ea5be460e7e5db7
Num Peaks: 5
118.070 19
119.052 19
146.060 999
147.062 28
192.074 3

Name: Phloretin
Synon: 3-(4-hydroxyphenyl)-1-(2,4,6-trihydroxyphenyl)propan-1-one
DB#: MSBNK-IPB_Halle-PB000681
InChIKey: VGEREEWJJVICBM-UHFFFAOYSA-N
InChI: InChI=1S/C15H14O5/c16-10-4-1-9(2-5-10)3-6-12(18)15-13(19)7-11(17)8-14(15)20/h1-2,4-5,7-8,16-17,19-20H,3,6H2
SMILES: C1=CC(=CC=C1CCC(=O)C2=C(C=C(C=C2O)O)O)O
Precursor_type: [M+H]+
Spectrum_type: MS2
Instrument_type: LC-ESI-QTOF
Instrument: API QSTAR Pulsar i
Ion_mode: POSITIVE
Collision_energy: 15 eV
Formula: C15H14O5
MW: 274
ExactMass: 274.08412
Comments: Parent=-1
Splash: splash10-0a6r-0940000000-4efa4b943568aeb36bfe
Num Peaks: 8
107.049 999
108.053 15
127.038 36
149.059 211
169.052 436
275.092 843
275.250 45
276.095 33

Name: Berberine
Synon: [Benzo[g]-1,3-benzodioxolo[5,6-a]quinolizinium, 5,6-dihydro-9,10-dimethoxy-
DB#: MSBNK-IPB_Halle-PB001482
InChIKey: YBHILYKTIRIUTE-UHFFFAOYSA-N
InChI: InChI=1S/C20H18NO4/c1-22-17-4-3-12-7-16-14-9-19-18(24-11-25-19)8-13(14)5-6-21(16)10-15(12)20(17)23-2/h3-4,7-10H,5-6,11H2,1-2H3/q+1
SMILES: COC1=C(C2=C[N+]3=C(C=C2C=C1)C4=CC5=C(C=C4CC3)OCO5)OC
Precursor_type: [M]+
Spectrum_type: MS2
Instrument_type: LC-ESI-QQ
Instrument: TSQ 7000
Ion_mode: POSITIVE
Collision_energy: 35 eV
Formula: [C20H18NO4]+
MW: 336
ExactMass: 336.12358
Comments: Parent=-1
Splash: splash10-00dl-0059000000-131055c16d28a84b6130
Num Peaks: 28
220.000 0
234.000 0
248.000 0
249.000 0
262.000 2
263.000 11
264.000 2
274.000 0
275.000 70
276.000 5
277.000 4
278.000 153
279.000 0
289.000 0
290.000 2
291.000 38
292.000 738
304.000 209
305.000 4
306.000 212
307.000 4
318.000 75
319.000 6
320.000 999
321.000 95
322.000 0
336.000 64
337.000 2

Name: Harman
Synon: 1-methyl-9H-pyrido[3,4-b]indole
DB#: MSBNK-IPB_Halle-PB000901
InChIKey: PSFDQSOCUJVVGF-UHFFFAOYSA-N
InChI: InChI=1S/C12H10N2/c1-8-12-10(6-7-13-8)9-4-2-3-5-11(9)14-12/h2-7,14H,1H3
SMILES: CC1=NC=CC2=C1NC3=CC=CC=C23
Precursor_type: [M+H]+
Spectrum_type: MS2
Instrument_type: LC-ESI-QTOF
Instrument: API QSTAR Pulsar i
Ion_mode: POSITIVE
Collision_energy: 25 eV
Formula: C12H10N2
MW: 182
ExactMass: 182.08440
Comments: Parent=-1
Splash: splash10-001i-0900000000-3206fb22991bbadfb410
Num Peaks: 9
115.059 90
142.071 61
156.088 9
167.072 12
168.077 55
182.095 38
183.092 999
183.198 10
184.103 22

Name: Indole-3-carbinol
Synon: H-indol-3-ylmethanol
DB#: MSBNK-IPB_Halle-PB000515
InChIKey: IVYPNXXAYMYVSP-UHFFFAOYSA-N
InChI: InChI=1S/C9H9NO/c11-6-7-5-10-9-4-2-1-3-8(7)9/h1-5,10-11H,6H2
SMILES: C1=CC=C2C(=C1)C(=CN2)CO
Precursor_type: [M+H-H2O]+
Spectrum_type: MS2
Instrument_type: LC-ESI-QTOF
Instrument: API QSTAR Pulsar i
Ion_mode: POSITIVE
Collision_energy: 20 eV
Formula: C9H9NO
MW: 147
ExactMass: 147.06841
Comments: Parent=-1
Splash: splash10-001i-0900000000-3d625989dc1eb3b60365
Num Peaks: 4
77.037 2
103.056 25
128.048 4
130.063 999

Name: Apigenin-7-O-glucoside
Synon: Apigetrin
Synon: Cosmosiin
Synon: 5-hydroxy-2-(4-hydroxyphenyl)-7-[(2S,3R,4S,5R,6R)-3,4,5-trihydroxy-6-(hydroxymethyl)oxan-2-yl]oxy-chromen-4-one
DB#: MSBNK-IPB_Halle-PN000067
InChIKey: KMOUJOKENFFTPU-QNDFHXLGSA-N
InChI: InChI=1S/C21H20O10/c22-8-16-18(26)19(27)20(28)21(31-16)29-11-5-12(24)17-13(25)7-14(30-15(17)6-11)9-1-3-10(23)4-2-9/h1-7,16,18-24,26-28H,8H2/t16-,18-,19+,20-,21-/m1/s1
SMILES: C1=CC(=CC=C1C2=CC(=O)C3=C(C=C(C=C3O2)O[C@H]4[C@@H]([C@H]([C@@H]([C@H](O4)CO)O)O)O)O)O
Precursor_type: [M-H]-
Spectrum_type: MS2
PrecursorMZ: 431.1
Instrument_type: ESI-TOF
Instrument: micrOTOF-Q
Ion_mode: NEGATIVE
Collision_energy: 25 eV
Formula: C21H20O10
MW: 432
ExactMass: 432.10565
Comments: Parent=431.1
Splash: splash10-014i-0090000000-046e7b020d5fe28eb1f5
Num Peaks: 5
268.038 888
269.046 999
270.051 125
431.104 110
432.104 33

Name: Daidzein
Synon: 7-hydroxy-3-(4-hydroxyphenyl)chromen-4-one
DB#: MSBNK-IPB_Halle-PB002425
InChIKey: ZQSIJRDFPHDXIC-UHFFFAOYSA-N
InChI: InChI=1S/C15H10O4/c16-10-3-1-9(2-4-10)13-8-19-14-7-11(17)5-6-12(14)15(13)18/h1-8,16-17H
SMILES: C1=CC(=CC=C1C2=COC3=C(C2=O)C=CC(=C3)O)O
Precursor_type: [M-H]-
Spectrum_type: MS2
Instrument_type: LC-ESI-QTOF
Instrument: API QSTAR Pulsar i
Ion_mode: NEGATIVE
Collision_energy: 15 eV
Formula: C15H10O4
MW: 254
ExactMass: 254.05791
Comments: Parent=-1
Splash: splash10-0udi-0090000000-a050bd191d6e0277d141
Num Peaks: 1
253.046 999

Name: o-Anisic acid
Synon: 2-methoxybenzoic acid
DB#: MSBNK-IPB_Halle-PB006061
InChIKey: ILUJQPXNXACGAN-UHFFFAOYSA-N
InChI: InChI=1S/C8H8O3/c1-11-7-5-3-2-4-6(7)8(9)10/h2-5H,1H3,(H,9,10)
SMILES: COC1=CC=CC=C1C(=O)O
Precursor_type: [M+H]+
Spectrum_type: MS2
Instrument_type: LC-ESI-QTOF
Instrument: micrOTOF-Q
Ion_mode: POSITIVE
Collision_energy: 10 eV
Formula: C8H8O3
MW: 152
ExactMass: 152.04734
Comments: Parent=-1
Splash: splash10-000i-0900000000-12ccf8ba5a601f24ec99
Num Peaks: 5
120.018 1
135.042 999
136.045 64
137.048 1
153.053 1

Name: Nicotianamine
Synon: (2S)-1-[(3S)-3-{[(3S)-3-amino-3-carboxypropyl]amino}-3-carboxypropyl]azetidine-2-carboxylic acid
DB#: MSBNK-IPB_Halle-PB003702
InChIKey: KRGPXXHMOXVMMM-CIUDSAMLSA-N
InChI: InChI=1S/C12H21N3O6/c13-7(10(16)17)1-4-14-8(11(18)19)2-5-15-6-3-9(15)12(20)21/h7-9,14H,1-6,13H2,(H,16,17)(H,18,19)(H,20,21)/t7-,8-,9-/m0/s1
SMILES: C1CN([C@@H]1C(=O)O)CC[C@@H](C(=O)O)NCC[C@@H](C(=O)O)N
Precursor_type: [M-H]-
Spectrum_type: MS2
Instrument_type: LC-ESI-QQ
Instrument: TSQ 7000
Ion_mode: NEGATIVE
Collision_energy: 30 eV
Formula: C12H21N3O6
MW: 303
ExactMass: 303.14303
Comments: Parent=-1
Splash: splash10-0gws-3940000000-a205bf09b0ceb146ea4c
Num Peaks: 48
66.000 7
71.000 357
72.000 28
73.000 56
82.000 28
83.000 8
84.000 106
85.000 64
94.000 41
99.000 771
100.000 260
101.000 15
111.000 229
112.000 173
113.000 97
117.000 274
118.000 66
123.000 5
125.000 19
127.000 53
128.000 23
129.000 60
139.000 35
140.000 101
143.000 13
156.000 46
157.000 55
166.000 23
181.000 10
182.000 999
183.000 62
185.000 14
186.000 885
187.000 294
194.000 14
197.000 30
200.000 314
201.000 465
206.000 61
212.000 398
213.000 506
228.000 1
240.000 150
241.000 72
264.000 27
266.000 10
302.000 39
321.000 9

Name: 5-hydroxy-2-[4-hydroxy-3-[(2S,3R,4S,5R,6R)-3,4,5-trihydroxy-6-(hydroxymethyl)oxan-2-yl]oxy-phenyl]-7-[(2S,3R,4S,5R,6R)-3,4,5-trihydroxy-6-(hydroxymethyl)oxan-2-yl]oxy-chromen-4-one
Synon: luteolin-3',7-di-O-glucoside
Synon: Luteolin 3',7-O-diglucoside
Synon: Luteolin-7,3'-di-O-glucoside
Synon: Lutl-3p-Glc-7-Glc
DB#: MSBNK-IPB_Halle-PN000058
InChIKey: BISZYPSIZGKOFA-IPOZFMEPSA-N
InChI: InChI=1S/C27H30O16/c28-7-17-20(33)22(35)24(37)26(42-17)39-10-4-12(31)19-13(32)6-14(40-16(19)5-10)9-1-2-11(30)15(3-9)41-27-25(38)23(36)21(34)18(8-29)43-27/h1-6,17-18,20-31,33-38H,7-8H2/t17-,18-,20-,21-,22+,23+,24-,25-,26-,27-/m1/s1
SMILES: C1=CC(=C(C=C1C2=CC(=O)C3=C(C=C(C=C3O2)O[C@H]4[C@@H]([C@H]([C@@H]([C@H](O4)CO)O)O)O)O)O[C@H]5[C@@H]([C@H]([C@@H]([C@H](O5)CO)O)O)O)O
Precursor_type: [M+H]+
Spectrum_type: MS2
PrecursorMZ: 611.163
Instrument_type: ESI-TOF
Instrument: micrOTOF-Q
Ion_mode: POSITIVE
Collision_energy: 15 eV
Formula: C27H30O16
MW: 610
ExactMass: 610.15338
Comments: Parent=611.163
Splash: splash10-0002-0000900000-4d2425a4bbb78e6c2a26
Num Peaks: 6
287.0541 30
449.1095 999
450.1126 131
451.1146 38
611.1686 35
612.1738 8

Name: Naringenin
Synon: 5,7-dihydroxy-2-(4-hydroxyphenyl)chroman-4-one
DB#: MSBNK-IPB_Halle-PB000124
InChIKey: FTVWIRXFELQLPI-ZDUSSCGKSA-N
InChI: InChI=1S/C15H12O5/c16-9-3-1-8(2-4-9)13-7-12(19)15-11(18)5-10(17)6-14(15)20-13/h1-6,13,16-18H,7H2/t13-/m0/s1
SMILES: C1[C@H](OC2=CC(=CC(=C2C1=O)O)O)C3=CC=C(C=C3)O
Precursor_type: [M+H]+
Spectrum_type: MS2
Instrument_type: LC-ESI-QTOF
Instrument: API QSTAR Pulsar i
Ion_mode: POSITIVE
Collision_energy: 40 eV
Formula: C15H12O5
MW: 272
ExactMass: 272.06847
Comments: Parent=-1
Splash: splash10-0udi-0900000000-69d64a193ad59cc8263f
Num Peaks: 12
67.019 17
68.998 11
69.036 8
91.054 72
95.050 19
97.029 10
107.051 21
119.050 337
123.044 38
147.044 226
153.018 999
154.023 34

Name: Apigenin O-glucoside malonylated
DB#: MSBNK-IPB_Halle-PN000074
InChI: N/A
SMILES: N/A
Precursor_type: [M-H]-
Spectrum_type: MS2
PrecursorMZ: 473.109
Instrument_type: ESI-TOF
Instrument: micrOTOF-Q
Ion_mode: NEGATIVE
Collision_energy: 25 eV
Formula: C24H22O13
MW: 518
ExactMass: 518.106040764
Comments: Parent=473.109
Splash: splash10-014i-0090500000-1e251848132eaf14d877
Num Peaks: 4
268.039 999
269.046 959
434.808 506
473.109 756

Name: Asparagine
Synon: 2,4-diamino-4-oxobutanoic acid
DB#: MSBNK-IPB_Halle-PB000456
InChIKey: DCXYFEDJOCDNAF-UHFFFAOYSA-N
InChI: InChI=1S/C4H8N2O3/c5-2(4(8)9)1-3(6)7/h2H,1,5H2,(H2,6,7)(H,8,9)
SMILES: C(C(C(=O)O)N)C(=O)N
Precursor_type: [M+H]+
Spectrum_type: MS2
Instrument_type: LC-ESI-QTOF
Instrument: API QSTAR Pulsar i
Ion_mode: POSITIVE
Collision_energy: 10 eV
Formula: C4H8N2O3
MW: 132
ExactMass: 132.05349
Comments: Parent=-1
Splash: splash10-001i-1900000000-d2469aba2206f52785d8
Num Peaks: 5
74.024 11
87.056 159
88.041 17
116.036 40
133.062 999

Name: Biochanin A
Synon: 5,7-dihydroxy-3-(4-methoxyphenyl)chromen-4-one
DB#: MSBNK-IPB_Halle-PB005708
InChIKey: WUADCCWRTIWANL-UHFFFAOYSA-N
InChI: InChI=1S/C16H12O5/c1-20-11-4-2-9(3-5-11)12-8-21-14-7-10(17)6-13(18)15(14)16(12)19/h2-8,17-18H,1H3
SMILES: COC1=CC=C(C=C1)C2=COC3=CC(=CC(=C3C2=O)O)O
Precursor_type: [M+H]+
Spectrum_type: MS2
Instrument_type: LC-ESI-QTOF
Instrument: micrOTOF-Q
Ion_mode: POSITIVE
Collision_energy: 15 eV
Formula: C16H12O5
MW: 284
ExactMass: 284.06847
Comments: Parent=-1
Splash: splash10-000i-0090000000-58e07837f69d383b057c
Num Peaks: 22
123.043 0
149.022 1
152.008 2
153.017 0
170.019 0
213.051 1
229.083 17
230.086 0
241.047 0
242.054 6
252.038 1
253.046 13
254.049 0
257.076 3
269.040 7
270.048 38
271.051 2
285.071 999
285.342 0
285.434 0
286.075 118
287.077 3

Name: (+/-) Salsolinol
Synon: 1-methyl-1,2,3,4-tetrahydroisoquinoline-6,7-diol
DB#: MSBNK-IPB_Halle-PB006042
InChIKey: IBRKLUSXDYATLG-UHFFFAOYSA-N
InChI: InChI=1S/C10H13NO2/c1-6-8-5-10(13)9(12)4-7(8)2-3-11-6/h4-6,11-13H,2-3H2,1H3
SMILES: CC1C2=CC(=C(C=C2CCN1)O)O
Precursor_type: [M+H]+
Spectrum_type: MS2
Instrument_type: LC-ESI-QTOF
Instrument: micrOTOF-Q
Ion_mode: POSITIVE
Collision_energy: 20 eV
Formula: C10H13NO2
MW: 179
ExactMass: 179.09463
Comments: Parent=-1
Splash: splash10-00kb-0900000000-d89b4eb37f9694e3dbb2
Num Peaks: 41
115.053 576
116.057 63
117.069 332
118.071 32
119.047 7
120.057 0
123.043 22
124.049 1
126.045 4
127.053 74
128.057 6
130.040 10
131.047 1
133.062 40
134.039 9
134.058 0
134.090 4
135.046 12
135.077 47
136.047 2
136.081 3
137.058 59
138.061 2
143.048 1
144.056 3
144.954 0
145.064 999
146.067 94
147.066 1
148.051 30
149.055 2
150.054 2
151.071 100
152.075 9
161.058 6
162.084 0
163.074 293
164.078 30
165.078 0
180.100 31
181.103 1

Name: Norharmane
Synon: 9H-pyrido[3,4-b]indole
DB#: MSBNK-IPB_Halle-PB003761
InChIKey: AIFRHYZBTHREPW-UHFFFAOYSA-N
InChI: InChI=1S/C11H8N2/c1-2-4-10-8(3-1)9-5-6-12-7-11(9)13-10/h1-7,13H
SMILES: C1=CC=C2C(=C1)C3=C(N2)C=NC=C3
Precursor_type: [M+H]+
Spectrum_type: MS2
Instrument_type: LC-ESI-QQ
Instrument: TSQ 7000
Ion_mode: POSITIVE
Collision_energy: 35 eV
Formula: C11H8N2
MW: 168
ExactMass: 168.06875
Comments: Parent=-1
Splash: splash10-014i-0900000000-5f1c82b770634430089f
Num Peaks: 29
63.000 1
65.000 5
75.000 0
77.000 3
78.000 0
89.000 20
90.000 1
91.000 3
101.000 2
102.000 1
113.000 1
114.000 12
115.000 999
116.000 35
117.000 5
125.000 0
128.000 5
129.000 5
140.000 45
141.000 50
142.000 78
143.000 1
152.000 3
153.000 0
166.000 0
167.000 20
168.000 225
169.000 391
170.000 5

Name: Dopamine
Synon: 4-(2-aminoethyl)benzene-1,2-diol
DB#: MSBNK-IPB_Halle-PB000482
InChIKey: VYFYYTLLBUKUHU-UHFFFAOYSA-N
InChI: InChI=1S/C8H11NO2/c9-4-3-6-1-2-7(10)8(11)5-6/h1-2,5,10-11H,3-4,9H2
SMILES: C1=CC(=C(C=C1CCN)O)O
Precursor_type: [M+H]+
Spectrum_type: MS2
Instrument_type: LC-ESI-QTOF
Instrument: API QSTAR Pulsar i
Ion_mode: POSITIVE
Collision_energy: 50 eV
Formula: C8H11NO2
MW: 153
ExactMass: 153.07898
Comments: Parent=-1
Splash: splash10-014i-9000000000-76762d9949198fa094f7
Num Peaks: 16
39.023 32
41.039 21
51.024 32
53.041 11
55.020 5
63.023 51
64.028 1
65.039 999
66.046 7
75.023 3
77.039 11
79.054 11
89.036 8
91.054 462
94.042 6
110.036 3

Name: Phlorizin
Synon: 1-[2,4-dihydroxy-6-[(2S,3R,4S,5S,6R)-3,4,5-trihydroxy-6-(hydroxymethyl)oxan-2-yl]oxyphenyl]-3-(4-hydroxyphenyl)propan-1-one
DB#: MSBNK-IPB_Halle-PB006207
InChIKey: IOUVKUPGCMBWBT-QNDFHXLGSA-N
InChI: InChI=1S/C21H24O10/c22-9-16-18(27)19(28)20(29)21(31-16)30-15-8-12(24)7-14(26)17(15)13(25)6-3-10-1-4-11(23)5-2-10/h1-2,4-5,7-8,16,18-24,26-29H,3,6,9H2/t16-,18-,19+,20-,21-/m1/s1
SMILES: C1=CC(=CC=C1CCC(=O)C2=C(C=C(C=C2O[C@H]3[C@@H]([C@H]([C@@H]([C@H](O3)CO)O)O)O)O)O)O
Precursor_type: [M+H]+
Spectrum_type: MS2
Instrument_type: LC-ESI-QTOF
Instrument: micrOTOF-Q
Ion_mode: POSITIVE
Collision_energy: 10 eV
Formula: C21H24O10
MW: 436
ExactMass: 436.13695
Comments: Parent=-1
Splash: splash10-004i-0092000000-90a57e1f22eef000cfc2
Num Peaks: 48
127.035 2
149.057 3
151.036 0
169.047 15
173.054 0
191.067 1
211.059 2
215.067 3
233.079 0
235.056 3
239.070 0
257.076 4
259.058 0
274.896 0
275.087 999
275.184 0
275.411 0
275.509 0
276.091 135
276.200 0
277.084 6
281.075 0
287.088 11
288.089 1
299.086 33
300.089 4
311.084 0
315.080 0
317.096 122
318.101 19
341.096 67
342.101 11
353.095 19
354.101 3
365.096 7
366.098 1
371.107 7
372.112 0
383.107 32
384.108 5
401.117 19
402.121 1
419.129 35
420.133 4
436.236 10
437.136 28
437.243 1
438.140 4

Name: Indole-3-carbinol
Synon: H-indol-3-ylmethanol
DB#: MSBNK-IPB_Halle-PB000517
InChIKey: IVYPNXXAYMYVSP-UHFFFAOYSA-N
InChI: InChI=1S/C9H9NO/c11-6-7-5-10-9-4-2-1-3-8(7)9/h1-5,10-11H,6H2
SMILES: C1=CC=C2C(=C1)C(=CN2)CO
Precursor_type: [M+H-H2O]+
Spectrum_type: MS2
Instrument_type: LC-ESI-QTOF
Instrument: API QSTAR Pulsar i
Ion_mode: POSITIVE
Collision_energy: 40 eV
Formula: C9H9NO
MW: 147
ExactMass: 147.06841
Comments: Parent=-1
Splash: splash10-004i-9200000000-43d8007af2a1b33116f9
Num Peaks: 18
50.017 3
51.024 138
53.040 4
63.023 1
75.023 8
77.038 999
78.036 3
91.050 1
95.050 128
101.041 6
102.048 44
103.056 193
104.050 2
105.045 42
119.049 1
128.050 24
129.047 5
130.063 83

Name: Thebaine
Synon: Morphinan, 6,7,8,14-tetradehydro-4,5-epoxy-3,6-dimethoxy-17-methyl-, (5.alpha.)-
DB#: MSBNK-IPB_Halle-PB003642
InChIKey: FQXXSQDCDRQNQE-UHFFFAOYSA-N
InChI: InChI=1S/C19H21NO3/c1-20-9-8-19-12-5-7-15(22-3)18(19)23-17-14(21-2)6-4-11(16(17)19)10-13(12)20/h4-7,13,18H,8-10H2,1-3H3
SMILES: CN1CCC23C4C(=CC=C2C1CC5=C3C(=C(C=C5)OC)O4)OC
Precursor_type: [M+H]+
Spectrum_type: MS2
Instrument_type: LC-ESI-QQ
Instrument: TSQ 7000
Ion_mode: POSITIVE
Collision_energy: 30 eV
Formula: C19H21NO3
MW: 311
ExactMass: 311.15214
Comments: Parent=-1
Splash: splash10-0a4i-4190000000-cce3eceb7d285ca59050
Num Peaks: 103
30.000 8
31.000 0
42.000 0
43.000 3
44.000 20
45.000 0
56.000 5
57.000 0
58.000 999
59.000 0
126.000 0
152.000 0
153.000 0
165.000 6
166.000 0
167.000 10
168.000 0
177.000 22
178.000 9
179.000 4
180.000 4
181.000 7
182.000 0
183.000 0
184.000 0
185.000 0
189.000 9
190.000 7
191.000 11
192.000 3
193.000 25
194.000 7
195.000 70
196.000 4
197.000 9
198.000 0
199.000 1
201.000 1
202.000 3
203.000 14
204.000 0
205.000 18
206.000 20
207.000 11
208.000 3
209.000 23
210.000 13
211.000 4
212.000 11
213.000 3
216.000 0
217.000 21
218.000 116
219.000 14
220.000 8
221.000 178
222.000 14
223.000 78
224.000 22
225.000 21
226.000 3
227.000 14
228.000 2
231.000 3
232.000 7
233.000 10
234.000 70
235.000 27
236.000 20
237.000 44
238.000 11
239.000 39
240.000 18
241.000 8
246.000 0
247.000 0
248.000 13
249.000 121
250.000 22
251.000 402
252.000 12
253.000 22
254.000 33
255.000 67
256.000 4
263.000 2
264.000 4
265.000 10
266.000 186
267.000 8
268.000 5
269.000 7
270.000 0
279.000 0
280.000 14
281.000 94
282.000 9
283.000 0
296.000 6
297.000 19
298.000 0
312.000 109
313.000 12

Name: Aspartic acid
Synon: 2-aminobutanedioic acid
DB#: MSBNK-IPB_Halle-PB000454
InChIKey: CKLJMWTZIZZHCS-UHFFFAOYSA-N
InChI: InChI=1S/C4H7NO4/c5-2(4(8)9)1-3(6)7/h2H,1,5H2,(H,6,7)(H,8,9)
SMILES: C(C(C(=O)O)N)C(=O)O
Precursor_type: [M+H]+
Spectrum_type: MS2
Instrument_type: LC-ESI-QTOF
Instrument: API QSTAR Pulsar i
Ion_mode: POSITIVE
Collision_energy: 20 eV
Formula: C4H7NO4
MW: 133
ExactMass: 133.03751
Comments: Parent=-1
Splash: splash10-00di-9000000000-1126b2d40b39c9f04f2b
Num Peaks: 7
43.017 23
46.028 69
70.027 141
74.023 999
88.037 461
116.034 37
134.044 18

Name: 4-methylumbelliferyl glucuronide
Synon: (2S,3S,4S,5R,6S)-3,4,5-trihydroxy-6-(4-methyl-2-oxochromen-7-yl)oxyoxane-2-carboxylic acid
DB#: MSBNK-IPB_Halle-PB006266
InChIKey: ARQXEQLMMNGFDU-JHZZJYKESA-N
InChI: InChI=1S/C16H16O9/c1-6-4-10(17)24-9-5-7(2-3-8(6)9)23-16-13(20)11(18)12(19)14(25-16)15(21)22/h2-5,11-14,16,18-20H,1H3,(H,21,22)/t11-,12-,13+,14-,16+/m0/s1
SMILES: CC1=CC(=O)OC2=C1C=CC(=C2)O[C@H]3[C@@H]([C@H]([C@@H]([C@H](O3)C(=O)O)O)O)O
Precursor_type: [M+H]+
Spectrum_type: MS2
Instrument_type: LC-ESI-QTOF
Instrument: micrOTOF-Q
Ion_mode: POSITIVE
Collision_energy: 20 eV
Formula: C16H16O9
MW: 352
ExactMass: 352.07943
Comments: Parent=-1
Splash: splash10-004i-0900000000-2623512c813899fbdf64
Num Peaks: 9
121.065 3
131.048 0
133.064 2
149.060 2
176.940 0
177.053 999
177.263 0
178.057 85
179.057 0

Name: Coumarin
Synon: chromen-2-one
DB#: MSBNK-IPB_Halle-PB004702
InChIKey: ZYGHJZDHTFUPRJ-UHFFFAOYSA-N
InChI: InChI=1S/C9H6O2/c10-9-6-5-7-3-1-2-4-8(7)11-9/h1-6H
SMILES: C1=CC=C2C(=C1)C=CC(=O)O2
Precursor_type: [M+H]+
Spectrum_type: MS2
Instrument_type: LC-ESI-QQ
Instrument: TSQ QUANTUM AM
Ion_mode: POSITIVE
Collision_energy: 25 eV
Formula: C9H6O2
MW: 146
ExactMass: 146.03678
Comments: Parent=-1
Splash: splash10-0006-9300000000-c29bd55b8ca9510aec2f
Num Peaks: 42
41.000 6
42.000 7
43.000 2
44.000 3
45.000 8
51.000 4
55.000 5
57.000 7
60.000 22
61.000 0
63.000 6
64.000 0
65.000 152
67.000 1
68.000 0
69.000 6
70.000 3
71.000 2
74.000 1
75.000 4
77.000 266
79.000 1
81.000 2
84.000 12
88.000 4
91.000 999
92.000 0
93.000 0
101.000 1
102.000 17
103.000 441
106.000 22
110.000 1
111.000 13
115.000 0
116.000 5
119.000 10
124.000 1
127.000 0
128.000 1
129.000 3
147.000 79

Name: Wighteone O-glucoside
DB#: MSBNK-IPB_Halle-PN000106
InChI: N/A
SMILES: N/A
Precursor_type: [M+H]+
Spectrum_type: MS2
PrecursorMZ: 501.177
Instrument_type: ESI-TOF
Instrument: micrOTOF-Q
Ion_mode: POSITIVE
Collision_energy: 15 eV
Formula: C26H28O10
MW: 500
ExactMass: 500.16824709599996
Comments: Parent=501.177
Splash: splash10-000i-0009000000-bdcc8814b2d4f6070a69
Num Peaks: 1
339.1217 999

Name: Kaempferol
Synon: 3,5,7-trihydroxy-2-(4-hydroxyphenyl)chromen-4-one
DB#: MSBNK-IPB_Halle-PB005703
InChIKey: IYRMWMYZSQPJKC-UHFFFAOYSA-N
InChI: InChI=1S/C15H10O6/c16-8-3-1-7(2-4-8)15-14(20)13(19)12-10(18)5-9(17)6-11(12)21-15/h1-6,16-18,20H
SMILES: C1=CC(=CC=C1C2=C(C(=O)C3=C(C=C(C=C3O2)O)O)O)O
Precursor_type: [M+H]+
Spectrum_type: MS2
Instrument_type: LC-ESI-QTOF
Instrument: micrOTOF-Q
Ion_mode: POSITIVE
Collision_energy: 15 eV
Formula: C15H10O6
MW: 286
ExactMass: 286.04774
Comments: Parent=-1
Splash: splash10-000i-0090000000-940cf7849b98a1a9dcf6
Num Peaks: 12
153.019 0
213.051 2
231.060 2
241.046 2
244.933 0
258.049 5
259.055 1
269.044 0
287.050 999
287.428 0
288.054 118
289.056 4

Name: Biochanin A 8-C-glucoside
DB#: MSBNK-IPB_Halle-PN000021
InChIKey: ZLFFEHIHCGIVET-HOSHUCMYSA-N
InChI: InChI=1S/C22H22O10/c1-30-10-4-2-9(3-5-10)11-8-31-21-15(17(11)26)12(24)6-13(25)16(21)22-20(29)19(28)18(27)14(7-23)32-22/h2-6,8,14,18-20,22-25,27-29H,7H2,1H3/t14-,18-,19+,20-,22?/m1/s1
SMILES: COC1=CC=C(C=C1)C2=COC3=C(C2=O)C(=CC(=C3C4[C@@H]([C@H]([C@@H]([C@H](O4)CO)O)O)O)O)O
Precursor_type: [M+H]+
Spectrum_type: MS2
PrecursorMZ: 447.133
Instrument_type: ESI-TOF
Instrument: micrOTOF-Q
Ion_mode: POSITIVE
Collision_energy: 15 eV
Formula: C22H22O10
MW: 446
ExactMass: 446.12129690399996
Comments: Parent=447.133
Splash: splash10-03fr-0003900000-1008140bd70a0999a98e
Num Peaks: 53
135.0453 3
217.0569 2
243.0306 2
285.0783 3
297.0774 28
298.0833 3
309.0732 7
310.0779 2
325.0838 3
327.0895 157
328.0929 24
329.0970 3
337.1033 7
339.0922 3
351.0879 144
352.0937 24
353.0919 4
355.0880 2
357.0987 89
358.1022 15
359.1106 2
363.0917 8
364.0885 2
365.1038 68
366.1101 12
367.1092 2
369.0993 28
370.1115 5
371.1085 1
375.0857 4
381.0994 217
382.1022 37
383.1137 12
384.1190 2
385.1024 1
387.1106 2
393.0997 192
394.1042 29
395.1101 5
399.1107 5
401.1210 1
411.1110 999
412.1129 155
413.1176 23
414.1158 3
429.1221 868
430.1254 143
431.1294 22
432.1311 3
447.1328 485
448.1381 64
449.1385 16
450.1463 2

Name: 2'-Hydroxygenistein O-glucoside malonylated
DB#: MSBNK-IPB_Halle-PN000046
InChI: N/A
SMILES: N/A
Precursor_type: [M-H]-
Spectrum_type: MS2
PrecursorMZ: 533.095
Instrument_type: ESI-TOF
Instrument: micrOTOF-Q
Ion_mode: NEGATIVE
Collision_energy: 25 eV
Formula: C24H22O14
MW: 534
ExactMass: 534.1009553839999
Comments: Parent=533.095
Splash: splash10-000i-0092100000-b3386c5bbb191bbdff36
Num Peaks: 4
285.038 999
286.040 278
327.056 299
489.101 237

Name: Tryptophan
Synon: 2-amino-3-(1H-indol-3-yl)propanoic acid
DB#: MSBNK-IPB_Halle-PB000418
InChIKey: QIVBCDIJIAJPQS-UHFFFAOYSA-N
InChI: InChI=1S/C11H12N2O2/c12-9(11(14)15)5-7-6-13-10-4-2-1-3-8(7)10/h1-4,6,9,13H,5,12H2,(H,14,15)
SMILES: C1=CC=C2C(=C1)C(=CN2)CC(C(=O)O)N
Precursor_type: [M+H]+
Spectrum_type: MS2
Instrument_type: LC-ESI-QTOF
Instrument: API QSTAR Pulsar i
Ion_mode: POSITIVE
Collision_energy: 55 eV
Formula: C11H12N2O2
MW: 204
ExactMass: 204.08988
Comments: Parent=-1
Splash: splash10-014i-2900000000-3cbedaee9e938c7636bd
Num Peaks: 38
65.039 42
74.024 9
77.038 43
79.053 4
89.039 133
90.046 78
91.055 651
92.058 16
93.056 9
95.052 2
101.040 11
102.046 16
103.057 85
104.054 13
105.071 29
106.064 4
113.039 5
114.047 14
115.054 999
116.058 186
117.058 692
118.066 375
119.067 9
126.046 7
127.054 25
128.050 55
129.052 9
130.066 248
131.071 24
132.081 37
140.052 36
141.058 32
142.066 184
143.075 228
144.080 16
146.059 4
155.063 5
158.087 2

Name: NAD+
Synon: Nicotinamide dinucleotide
Synon: 1-[(2R,3R,4S,5R)-5-[[[[(2R,3S,4R,5R)-5-(6-aminopurin-9-yl)-3,4-dihydroxyoxolan-2-yl]methoxy-hydroxyphosphoryl]oxy-hydroxyphosphoryl]oxymethyl]-3,4-dihydroxyoxolan-2-yl]pyridin-1-ium-3-carboxylic acid
DB#: MSBNK-IPB_Halle-PB006002
InChIKey: BAWFJGJZGIEFAR-NNYOXOHSSA-O
InChI: InChI=1S/C21H27N7O14P2/c22-17-12-19(25-7-24-17)28(8-26-12)21-16(32)14(30)11(41-21)6-39-44(36,37)42-43(34,35)38-5-10-13(29)15(31)20(40-10)27-3-1-2-9(4-27)18(23)33/h1-4,7-8,10-11,13-16,20-21,29-32H,5-6H2,(H5-,22,23,24,25,33,34,35,36,37)/p+1/t10-,11-,13-,14-,15-,16-,20-,21-/m1/s1
SMILES: C1=CC(=C[N+](=C1)[C@H]2[C@@H]([C@@H]([C@H](O2)COP(=O)(O)OP(=O)(O)OC[C@@H]3[C@H]([C@H]([C@@H](O3)N4C=NC5=C(N=CN=C54)N)O)O)O)O)C(=O)N
Precursor_type: [M]+
Spectrum_type: MS2
Instrument_type: LC-ESI-QTOF
Instrument: micrOTOF-Q
Ion_mode: POSITIVE
Collision_energy: 15 eV
Formula: [C21H28N7O14P2]+
MW: 664
ExactMass: 664.11695
Comments: Parent=-1
Splash: splash10-0096-0010392000-c7aac3decfe86944a405
Num Peaks: 58
136.060 68
137.060 1
219.087 0
232.080 239
233.083 28
234.075 0
250.090 23
328.099 0
330.055 4
335.063 5
348.066 26
349.067 0
370.989 9
371.993 0
388.998 0
410.022 6
415.033 0
427.587 0
428.032 668
428.203 0
428.364 0
428.462 0
429.034 71
429.166 0
430.038 11
431.034 0
444.088 28
445.090 4
511.045 1
523.668 0
524.052 999
524.513 1
524.653 0
524.775 0
524.890 0
525.056 166
525.205 2
526.054 27
527.051 0
529.054 9
530.060 1
541.869 0
542.063 945
542.302 1
542.419 0
542.597 0
542.744 0
543.067 161
544.067 25
545.065 1
664.110 434
664.253 5
664.460 0
665.112 106
665.308 1
665.425 0
666.114 21
667.117 0

Name: Naringin
Synon: (2S)-7-[(2S,3R,4S,5S,6R)-4,5-dihydroxy-6-(hydroxymethyl)-3-[(2S,3R,4R,5R,6S)-3,4,5-trihydroxy-6-methyloxan-2-yl]oxyoxan-2-yl]oxy-5-hydroxy-2-(4-hydroxyphenyl)-2,3-dihydrochromen-4-one
DB#: MSBNK-IPB_Halle-PB005722
InChIKey: DFPMSGMNTNDNHN-ZPHOTFPESA-N
InChI: InChI=1S/C27H32O14/c1-10-20(32)22(34)24(36)26(37-10)41-25-23(35)21(33)18(9-28)40-27(25)38-13-6-14(30)19-15(31)8-16(39-17(19)7-13)11-2-4-12(29)5-3-11/h2-7,10,16,18,20-30,32-36H,8-9H2,1H3/t10-,16-,18+,20-,21+,22+,23-,24+,25+,26-,27+/m0/s1
SMILES: C[C@H]1[C@@H]([C@H]([C@H]([C@@H](O1)O[C@@H]2[C@H]([C@@H]([C@H](O[C@H]2OC3=CC(=C4C(=O)C[C@H](OC4=C3)C5=CC=C(C=C5)O)O)CO)O)O)O)O)O
Precursor_type: [M+H]+
Spectrum_type: MS2
Instrument_type: LC-ESI-QTOF
Instrument: micrOTOF-Q
Ion_mode: POSITIVE
Collision_energy: 10 eV
Formula: C27H32O14
MW: 580
ExactMass: 580.17921
Comments: Parent=-1
Splash: splash10-00di-0090100000-a202c2b71f0ea2d7dd6b
Num Peaks: 39
129.053 2
147.062 0
153.016 2
255.083 1
263.049 0
272.870 0
273.071 999
274.074 102
275.077 2
281.060 4
285.072 0
297.066 2
309.112 4
315.080 30
316.084 3
339.079 8
340.085 0
369.091 0
381.089 1
383.105 13
384.110 1
399.102 2
401.116 22
402.119 2
417.111 23
418.115 3
419.127 59
420.130 9
425.110 0
435.121 76
436.125 11
443.125 1
459.121 1
461.136 1
527.147 0
545.155 1
563.166 0
581.177 6
582.181 0

Name: Naringenin chalcone
Synon: 3-(4-hydroxyphenyl)-1-(2,4,6-trihydroxyphenyl)prop-2-en-1-one
DB#: MSBNK-IPB_Halle-PB002405
InChIKey: YQHMWTPYORBCMF-ZZXKWVIFSA-N
InChI: InChI=1S/C15H12O5/c16-10-4-1-9(2-5-10)3-6-12(18)15-13(19)7-11(17)8-14(15)20/h1-8,16-17,19-20H/b6-3+
SMILES: C1=CC(=CC=C1/C=C/C(=O)C2=C(C=C(C=C2O)O)O)O
Precursor_type: [M-H]-
Spectrum_type: MS2
Instrument_type: LC-ESI-QTOF
Instrument: API QSTAR Pulsar i
Ion_mode: NEGATIVE
Collision_energy: 15 eV
Formula: C15H12O5
MW: 272
ExactMass: 272.06847
Comments: Parent=-1
Splash: splash10-00di-0190000000-f40a3d639173b6ae573e
Num Peaks: 4
119.051 19
151.005 166
177.016 26
271.055 999

Name: Quercetin
Synon: 2-(3,4-dihydroxyphenyl)-3,5,7-trihydroxychromen-4-one
DB#: MSBNK-IPB_Halle-PB004101
InChIKey: REFJWTPEDVJJIY-UHFFFAOYSA-N
InChI: InChI=1S/C15H10O7/c16-7-4-10(19)12-11(5-7)22-15(14(21)13(12)20)6-1-2-8(17)9(18)3-6/h1-5,16-19,21H
SMILES: C1=CC(=C(C=C1C2=C(C(=O)C3=C(C=C(C=C3O2)O)O)O)O)O
Precursor_type: [M-H]-
Spectrum_type: MS2
Instrument_type: LC-ESI-QQ
Instrument: TSQ 7000
Ion_mode: NEGATIVE
Collision_energy: 20 eV
Formula: C15H10O7
MW: 302
ExactMass: 302.04265
Comments: Parent=-1
Splash: splash10-0udi-0915000000-7a3fb3aa5f4be69956d8
Num Peaks: 65
65.000 0
83.000 3
93.000 2
107.000 49
109.000 6
121.000 90
124.000 0
125.000 6
141.000 0
149.000 11
151.000 835
152.000 0
159.000 2
161.000 1
162.000 0
163.000 13
164.000 7
171.000 1
173.000 0
175.000 4
177.000 0
179.000 617
183.000 0
184.000 0
185.000 1
186.000 0
187.000 8
189.000 6
190.000 0
191.000 0
192.000 6
193.000 34
195.000 0
201.000 9
203.000 3
205.000 5
211.000 11
213.000 3
214.000 2
215.000 3
217.000 1
219.000 1
225.000 6
227.000 5
228.000 2
229.000 45
230.000 0
231.000 5
233.000 0
239.000 9
240.000 1
241.000 2
243.000 2
245.000 23
255.000 4
256.000 2
257.000 30
271.000 2
272.000 0
273.000 115
283.000 0
284.000 3
299.000 14
300.000 1
301.000 999

Name: 7,4'-Dihydroxyflavone
Synon: 4H-1-Benzopyran-4-one, 7-hydroxy-2-(4-hydroxyphenyl)
Synon: 7-Hydroxy-2-(4-hydroxyphenyl)-4H-chromen-4-one
DB#: MSBNK-IPB_Halle-PN000119
InChIKey: LCAWNFIFMLXZPQ-UHFFFAOYSA-N
InChI: InChI=1S/C15H10O4/c16-10-3-1-9(2-4-10)14-8-13(18)12-6-5-11(17)7-15(12)19-14/h1-8,16-17H
SMILES: OC=1C=CC(=CC=1)C2=CC(=O)C3=CC=C(O)C=C3(O2)
Precursor_type: [M+H]+
Spectrum_type: MS2
PrecursorMZ: 255.064
Instrument_type: ESI-TOF
Instrument: micrOTOF-Q
Ion_mode: POSITIVE
Collision_energy: 15 eV
Formula: C15H10O4
MW: 254
ExactMass: 254.0579088
Comments: Parent=255.064
Splash: splash10-000j-1900000000-993d80b7631f736596b9
Num Peaks: 33
81.033 92
89.037 74
91.054 323
92.057 17
93.033 33
95.012 48
107.050 36
109.029 108
115.054 49
117.034 56
119.048 246
120.050 26
121.028 96
128.061 83
129.066 26
131.047 40
137.023 999
138.027 75
139.050 39
141.072 24
145.029 788
146.031 71
152.060 135
153.067 66
155.035 18
157.061 57
167.053 20
169.064 23
181.062 74
227.072 34
234.935 25
252.950 23
255.063 57

Name: Indoleacetic acid
Synon: 2-(1H-indol-3-yl)acetic acid
DB#: MSBNK-IPB_Halle-PB000510
InChIKey: SEOVTRFCIGRIMH-UHFFFAOYSA-N
InChI: InChI=1S/C10H9NO2/c12-10(13)5-7-6-11-9-4-2-1-3-8(7)9/h1-4,6,11H,5H2,(H,12,13)
SMILES: C1=CC=C2C(=C1)C(=CN2)CC(=O)O
Precursor_type: [M+H]+
Spectrum_type: MS2
Instrument_type: LC-ESI-QTOF
Instrument: API QSTAR Pulsar i
Ion_mode: POSITIVE
Collision_energy: 10 eV
Formula: C10H9NO2
MW: 175
ExactMass: 175.06333
Comments: Parent=-1
Splash: splash10-004i-0900000000-85d7071f8c5d5256e548
Num Peaks: 5
130.063 81
144.043 5
148.072 10
176.070 999
177.072 8

Name: Coumarin
Synon: chromen-2-one
DB#: MSBNK-IPB_Halle-PB004701
InChIKey: ZYGHJZDHTFUPRJ-UHFFFAOYSA-N
InChI: InChI=1S/C9H6O2/c10-9-6-5-7-3-1-2-4-8(7)11-9/h1-6H
SMILES: C1=CC=C2C(=C1)C=CC(=O)O2
Precursor_type: [M+H]+
Spectrum_type: MS2
Instrument_type: LC-ESI-QQ
Instrument: TSQ QUANTUM AM
Ion_mode: POSITIVE
Collision_energy: 23 eV
Formula: C9H6O2
MW: 146
ExactMass: 146.03678
Comments: Parent=-1
Splash: splash10-0f6x-9500000000-da852779b618f093b767
Num Peaks: 46
41.000 1
42.000 9
43.000 0
44.000 1
45.000 7
51.000 1
55.000 2
56.000 2
57.000 8
60.000 21
61.000 0
63.000 2
65.000 125
69.000 6
70.000 5
73.000 3
75.000 0
77.000 260
79.000 1
83.000 6
84.000 16
85.000 1
87.000 0
88.000 0
91.000 999
92.000 2
93.000 0
98.000 0
101.000 0
102.000 26
103.000 541
105.000 5
106.000 27
109.000 1
110.000 2
111.000 16
115.000 0
117.000 0
119.000 7
124.000 1
128.000 1
129.000 1
130.000 0
132.000 1
144.000 0
147.000 193

Name: Catechin
Synon: (2R,3S)-2-(3,4-dihydroxyphenyl)chroman-3,5,7-triol
DB#: MSBNK-IPB_Halle-PB002430
InChIKey: PFTAWBLQPZVEMU-DZGCQCFKSA-N
InChI: InChI=1S/C15H14O6/c16-8-4-11(18)9-6-13(20)15(21-14(9)5-8)7-1-2-10(17)12(19)3-7/h1-5,13,15-20H,6H2/t13-,15+/m0/s1
SMILES: C1[C@@H]([C@H](OC2=CC(=CC(=C21)O)O)C3=CC(=C(C=C3)O)O)O
Precursor_type: [M-H]-
Spectrum_type: MS2
Instrument_type: LC-ESI-QTOF
Instrument: API QSTAR Pulsar i
Ion_mode: NEGATIVE
Collision_energy: 25 eV
Formula: C15H14O6
MW: 290
ExactMass: 290.07904
Comments: Parent=-1
Splash: splash10-0pds-0970000000-2631ce85b21e59412694
Num Peaks: 55
81.031 14
83.011 15
95.049 41
97.029 103
108.022 10
109.031 727
121.028 77
122.036 16
123.043 306
125.022 659
135.044 52
137.024 349
138.031 22
139.040 110
145.030 19
146.037 20
147.045 12
149.024 167
150.031 17
151.039 369
159.047 54
160.053 38
161.061 201
162.033 64
163.041 32
164.012 102
165.019 211
166.026 33
167.034 110
173.060 19
174.034 20
175.042 112
177.052 17
179.031 362
180.040 15
185.059 26
186.065 16
187.036 198
188.044 159
199.070 28
201.066 39
202.057 123
203.065 785
205.044 662
212.044 23
217.080 72
221.081 274
227.071 151
229.050 14
230.058 45
231.031 45
245.083 999
247.062 82
271.063 46
289.071 780

Name: Xanthohumol
Synon: (E)-1-[2,4-dihydroxy-6-methoxy-3-(3-methylbut-2-enyl)phenyl]-3-(4-hydroxyphenyl)prop-2-en-1-one
DB#: MSBNK-IPB_Halle-PB004922
InChIKey: ORXQGKIUCDPEAJ-YRNVUSSQSA-N
InChI: InChI=1S/C21H22O5/c1-13(2)4-10-16-18(24)12-19(26-3)20(21(16)25)17(23)11-7-14-5-8-15(22)9-6-14/h4-9,11-12,22,24-25H,10H2,1-3H3/b11-7+
SMILES: CC(=CCC1=C(C(=C(C=C1O)OC)C(=O)/C=C/C2=CC=C(C=C2)O)O)C
Precursor_type: [M+H]+
Spectrum_type: MS2
Instrument_type: LC-ESI-QQ
Instrument: TSQ QUANTUM AM
Ion_mode: POSITIVE
Collision_energy: 20 eV
Formula: C21H22O5
MW: 354
ExactMass: 354.14672
Comments: Parent=-1
Splash: splash10-004i-0910000000-2dea6c7222209825ac37
Num Peaks: 7
151.000 1
179.000 999
197.000 0
235.000 2
257.000 16
299.000 110
355.000 0

Name: Phenylglycine
Synon: 2-amino-2-phenylacetic acid
DB#: MSBNK-IPB_Halle-PB006103
InChIKey: ZGUNAGUHMKGQNY-UHFFFAOYSA-N
InChI: InChI=1S/C8H9NO2/c9-7(8(10)11)6-4-2-1-3-5-6/h1-5,7H,9H2,(H,10,11)
SMILES: C1=CC=C(C=C1)C(C(=O)O)N
Precursor_type: [M+H]+
Spectrum_type: MS2
Instrument_type: LC-ESI-QTOF
Instrument: micrOTOF-Q
Ion_mode: POSITIVE
Collision_energy: 10 eV
Formula: C8H9NO2
MW: 151
ExactMass: 151.06333
Comments: Parent=-1
Splash: splash10-000i-0900000000-977fbf01f8ff42a9231c
Num Peaks: 6
107.047 3
135.042 999
136.046 71
137.048 0
152.069 15
153.072 0

Name: Allocryptopine
Synon: [1,3]Benzodioxolo[5,6-e][2]benzazecin-14(6H)-one, 5,7,8,15-tetrahydro-3,4-dimethoxy-6-methyl-
DB#: MSBNK-IPB_Halle-PB001449
InChIKey: HYBRYAPKQCZIAE-UHFFFAOYSA-N
InChI: InChI=1S/C21H23NO5/c1-22-7-6-14-9-19-20(27-12-26-19)10-15(14)17(23)8-13-4-5-18(24-2)21(25-3)16(13)11-22/h4-5,9-10H,6-8,11-12H2,1-3H3
SMILES: CN1CCC2=CC3=C(C=C2C(=O)CC4=C(C1)C(=C(C=C4)OC)OC)OCO3
Precursor_type: [M+H]+
Spectrum_type: MS2
Instrument_type: LC-ESI-QQ
Instrument: TSQ 7000
Ion_mode: POSITIVE
Collision_energy: 35 eV
Formula: C21H23NO5
MW: 369
ExactMass: 369.15762
Comments: Parent=-1
Splash: splash10-000i-0953000000-1d2acccdc4915f7f5fec
Num Peaks: 185
32.000 4
33.000 1
42.000 0
43.000 0
44.000 72
45.000 14
58.000 8
59.000 1
75.000 1
91.000 6
92.000 0
93.000 0
95.000 0
103.000 0
105.000 2
107.000 0
108.000 0
119.000 9
120.000 0
121.000 7
122.000 3
123.000 4
130.000 0
131.000 5
132.000 2
133.000 1
135.000 28
136.000 12
137.000 2
138.000 13
139.000 0
143.000 0
146.000 3
147.000 1
148.000 5
149.000 78
150.000 18
151.000 80
153.000 53
154.000 1
159.000 17
160.000 8
161.000 17
162.000 7
163.000 26
164.000 3
165.000 130
166.000 74
167.000 0
173.000 5
174.000 4
175.000 10
176.000 21
177.000 25
178.000 23
179.000 22
180.000 0
181.000 157
182.000 0
185.000 0
186.000 0
187.000 13
188.000 999
189.000 529
190.000 78
191.000 52
192.000 23
193.000 11
194.000 0
195.000 1
200.000 2
201.000 1
202.000 4
203.000 1
204.000 30
205.000 2
206.000 288
207.000 3
209.000 4
210.000 13
211.000 3
212.000 0
217.000 0
219.000 1
220.000 1
221.000 1
222.000 6
223.000 2
224.000 0
225.000 0
226.000 12
227.000 2
231.000 0
232.000 8
233.000 2
234.000 2
235.000 2
236.000 1
237.000 2
238.000 18
239.000 3
241.000 26
242.000 1
245.000 0
246.000 5
247.000 6
248.000 8
249.000 5
250.000 28
251.000 21
252.000 22
253.000 21
254.000 15
255.000 2
259.000 8
260.000 27
261.000 8
262.000 6
263.000 25
264.000 4
265.000 10
266.000 15
267.000 3
268.000 10
269.000 12
270.000 1
274.000 8
275.000 46
276.000 20
277.000 7
278.000 59
279.000 22
280.000 22
281.000 31
282.000 3
283.000 23
284.000 0
288.000 3
289.000 11
290.000 446
291.000 59
292.000 30
293.000 9
294.000 39
295.000 4
296.000 6
297.000 3
299.000 1
303.000 0
304.000 6
305.000 6
306.000 101
307.000 15
308.000 31
309.000 31
310.000 1
311.000 22
312.000 0
316.000 1
317.000 1
318.000 12
319.000 3
320.000 56
321.000 38
322.000 54
323.000 8
324.000 5
327.000 9
328.000 0
334.000 11
335.000 7
336.000 157
337.000 50
338.000 1
339.000 16
340.000 4
341.000 0
348.000 0
350.000 25
351.000 1
352.000 84
353.000 3
355.000 0
370.000 200
371.000 3

Name: Erythromycin
Synon: (2R,3R,4S,5R,8R,9S,10S,11R,12R,14R)-11-[(2S,3R,4S,6R)-4-(dimethylamino)-3-hydroxy-6-methyloxan-2-yl]oxy-5-ethyl-3,4,12-trihydroxy-9-[(2R,4R,5S,6S)-5-hydroxy-4-methoxy-4,6-dimethyloxan-2-yl]oxy-2,4,8,10,12,14-hexamethyl-6-oxacyclotetradecane-1,7-dione
DB#: MSBNK-IPB_Halle-PB005801
InChIKey: ULGZDMOVFRHVEP-RWJQBGPGSA-N
InChI: InChI=1S/C37H67NO13/c1-14-25-37(10,45)30(41)20(4)27(39)18(2)16-35(8,44)32(51-34-28(40)24(38(11)12)15-19(3)47-34)21(5)29(22(6)33(43)49-25)50-26-17-36(9,46-13)31(42)23(7)48-26/h18-26,28-32,34,40-42,44-45H,14-17H2,1-13H3/t18-,19-,20+,21+,22-,23+,24+,25-,26+,28-,29+,30-,31+,32-,34+,35-,36-,37-/m1/s1
SMILES: CC[C@@H]1[C@@]([C@@H]([C@H](C(=O)[C@@H](C[C@@]([C@@H]([C@H]([C@@H]([C@H](C(=O)O1)C)O[C@H]2C[C@@]([C@H]([C@@H](O2)C)O)(C)OC)C)O[C@H]3[C@@H]([C@H](C[C@H](O3)C)N(C)C)O)(C)O)C)C)O)(C)O
Precursor_type: [M+H]+
Spectrum_type: MS2
Instrument_type: LC-ESI-QTOF
Instrument: micrOTOF-Q
Ion_mode: POSITIVE
Collision_energy: 10 eV
Formula: C37H67NO13
MW: 733
ExactMass: 733.46124
Comments: Parent=-1
Splash: splash10-001i-0000020900-78ac24c4a3447cf2cb78
Num Peaks: 24
158.116 14
159.119 0
316.208 8
317.211 0
383.238 0
522.338 21
523.341 4
540.348 16
541.352 3
558.359 54
559.362 13
560.363 1
576.370 220
577.373 57
578.375 7
698.440 6
699.444 1
716.451 31
717.454 10
718.456 1
734.463 999
735.465 369
736.468 62
737.470 2

Name: Kaempferol
Synon: 3,5,7-trihydroxy-2-(4-hydroxyphenyl)chromen-4-one
DB#: MSBNK-IPB_Halle-PB000165
InChIKey: IYRMWMYZSQPJKC-UHFFFAOYSA-N
InChI: InChI=1S/C15H10O6/c16-8-3-1-7(2-4-8)15-14(20)13(19)12-10(18)5-9(17)6-11(12)21-15/h1-6,16-18,20H
SMILES: C1=CC(=CC=C1C2=C(C(=O)C3=C(C=C(C=C3O2)O)O)O)O
Precursor_type: [M+H]+
Spectrum_type: MS2
Instrument_type: LC-ESI-QTOF
Instrument: API QSTAR Pulsar i
Ion_mode: POSITIVE
Collision_energy: 25 eV
Formula: C15H10O6
MW: 286
ExactMass: 286.04774
Comments: Parent=-1
Splash: splash10-000i-0090000000-52fa8ec7c532a06c8428
Num Peaks: 3
153.018 8
287.055 999
288.060 40

Name: Lysine
Synon: 2,6-diaminohexanoic acid
DB#: MSBNK-IPB_Halle-PB000426
InChIKey: KDXKERNSBIXSRK-UHFFFAOYSA-N
InChI: InChI=1S/C6H14N2O2/c7-4-2-1-3-5(8)6(9)10/h5H,1-4,7-8H2,(H,9,10)
SMILES: C(CCN)CC(C(=O)O)N
Precursor_type: [M+H]+
Spectrum_type: MS2
Instrument_type: LC-ESI-QTOF
Instrument: API QSTAR Pulsar i
Ion_mode: POSITIVE
Collision_energy: 10 eV
Formula: C6H14N2O2
MW: 146
ExactMass: 146.10553
Comments: Parent=-1
Splash: splash10-0002-0900000000-8031c460403001d0490c
Num Peaks: 4
84.082 22
129.102 16
130.086 257
147.113 999

Name: Lysine
Synon: 2,6-diaminohexanoic acid
DB#: MSBNK-IPB_Halle-PB000430
InChIKey: KDXKERNSBIXSRK-UHFFFAOYSA-N
InChI: InChI=1S/C6H14N2O2/c7-4-2-1-3-5(8)6(9)10/h5H,1-4,7-8H2,(H,9,10)
SMILES: C(CCN)CC(C(=O)O)N
Precursor_type: [M+H]+
Spectrum_type: MS2
Instrument_type: LC-ESI-QTOF
Instrument: API QSTAR Pulsar i
Ion_mode: POSITIVE
Collision_energy: 40 eV
Formula: C6H14N2O2
MW: 146
ExactMass: 146.10553
Comments: Parent=-1
Splash: splash10-053r-9000000000-32e2cff52e2d6e5a232c
Num Peaks: 21
39.023 3
41.040 18
42.036 19
43.043 2
53.041 1
54.037 1
55.056 75
56.051 563
57.071 14
65.039 18
67.055 127
68.051 7
69.059 39
70.065 0
71.051 1
74.025 10
77.040 0
82.066 12
84.082 999
85.067 1
91.054 1

Name: Indoleacetic acid
Synon: 2-(1H-indol-3-yl)acetic acid
DB#: MSBNK-IPB_Halle-PB000514
InChIKey: SEOVTRFCIGRIMH-UHFFFAOYSA-N
InChI: InChI=1S/C10H9NO2/c12-10(13)5-7-6-11-9-4-2-1-3-8(7)9/h1-4,6,11H,5H2,(H,12,13)
SMILES: C1=CC=C2C(=C1)C(=CN2)CC(=O)O
Precursor_type: [M+H]+
Spectrum_type: MS2
Instrument_type: LC-ESI-QTOF
Instrument: API QSTAR Pulsar i
Ion_mode: POSITIVE
Collision_energy: 50 eV
Formula: C10H9NO2
MW: 175
ExactMass: 175.06333
Comments: Parent=-1
Splash: splash10-0ufr-8900000000-e75b551fddf1fe5a8a97
Num Peaks: 59
39.021 3
41.040 0
43.014 1
45.029 0
50.015 21
51.023 53
52.029 17
53.046 2
55.015 1
55.055 3
57.936 1
62.017 2
62.928 13
63.022 87
64.026 7
64.928 6
65.038 100
66.044 23
67.055 2
75.022 8
76.028 145
77.037 999
78.045 180
79.041 146
80.044 1
80.978 1
88.026 9
89.038 439
90.045 173
91.052 71
92.060 1
93.032 1
94.042 6
95.049 145
96.046 3
98.985 2
101.040 11
102.045 55
103.055 728
104.049 649
105.056 323
106.060 9
114.035 10
115.041 29
116.048 62
117.058 200
118.065 5
119.040 1
121.067 11
128.046 67
129.050 14
130.063 517
131.068 7
132.043 34
133.050 64
134.055 4
143.031 0
144.052 0
146.060 5

Name: 5-Hydroxytryptophan
Synon: 2-amino-3-(5-hydroxy-1H-indol-3-yl)propanoic acid
DB#: MSBNK-IPB_Halle-PB001402
InChIKey: LDCYZAJDBXYCGN-UHFFFAOYSA-N
InChI: InChI=1S/C11H12N2O3/c12-9(11(15)16)3-6-5-13-10-2-1-7(14)4-8(6)10/h1-2,4-5,9,13-14H,3,12H2,(H,15,16)
SMILES: C1=CC2=C(C=C1O)C(=CN2)CC(C(=O)O)N
Precursor_type: [M+H]+
Spectrum_type: MS2
Instrument_type: LC-ESI-QTOF
Instrument: API QSTAR Pulsar i
Ion_mode: POSITIVE
Collision_energy: 25 eV
Formula: C11H12N2O3
MW: 220
ExactMass: 220.08479
Comments: Parent=-1
Splash: splash10-03di-0910000000-5e6f9e21dd30ec8c20f3
Num Peaks: 46
41.038 2
43.018 2
55.062 1
57.062 13
59.044 2
69.062 4
71.092 4
73.035 3
74.023 8
81.067 2
91.056 7
95.094 4
105.081 3
106.066 7
109.109 4
115.048 5
116.050 2
117.062 7
119.103 1
121.022 6
121.054 3
131.053 12
132.082 41
133.092 13
134.060 237
135.072 7
137.058 4
139.053 2
142.075 8
143.079 4
146.056 31
147.060 5
148.072 49
158.059 84
159.065 38
160.073 229
161.083 5
162.053 999
163.053 22
175.085 62
175.135 5
176.074 8
186.055 100
203.174 2
204.066 339
205.075 14

Name: Biochanin A
Synon: 5,7-dihydroxy-3-(4-methoxyphenyl)chromen-4-one
DB#: MSBNK-IPB_Halle-PB000261
InChIKey: WUADCCWRTIWANL-UHFFFAOYSA-N
InChI: InChI=1S/C16H12O5/c1-20-11-4-2-9(3-5-11)12-8-21-14-7-10(17)6-13(18)15(14)16(12)19/h2-8,17-18H,1H3
SMILES: COC1=CC=C(C=C1)C2=COC3=CC(=CC(=C3C2=O)O)O
Precursor_type: [M+H]+
Spectrum_type: MS2
Instrument_type: LC-ESI-QTOF
Instrument: API QSTAR Pulsar i
Ion_mode: POSITIVE
Collision_energy: 25 eV
Formula: C16H12O5
MW: 284
ExactMass: 284.06847
Comments: Parent=-1
Splash: splash10-000i-0090000000-7af822b8dad09b0ac6c8
Num Peaks: 11
123.043 18
149.023 20
152.010 36
153.018 10
229.084 60
242.054 25
253.048 37
269.043 20
270.052 79
285.058 999
286.071 39

Name: Lysine
Synon: 2,6-diaminohexanoic acid
DB#: MSBNK-IPB_Halle-PB000427
InChIKey: KDXKERNSBIXSRK-UHFFFAOYSA-N
InChI: InChI=1S/C6H14N2O2/c7-4-2-1-3-5(8)6(9)10/h5H,1-4,7-8H2,(H,9,10)
SMILES: C(CCN)CC(C(=O)O)N
Precursor_type: [M+H]+
Spectrum_type: MS2
Instrument_type: LC-ESI-QTOF
Instrument: API QSTAR Pulsar i
Ion_mode: POSITIVE
Collision_energy: 15 eV
Formula: C6H14N2O2
MW: 146
ExactMass: 146.10553
Comments: Parent=-1
Splash: splash10-001i-3900000000-2f197dcca0f8c23009be
Num Peaks: 6
84.082 635
101.110 11
102.094 5
129.102 43
130.086 999
147.113 375

Name: Naringenin
Synon: 5,7-dihydroxy-2-(4-hydroxyphenyl)chroman-4-one
DB#: MSBNK-IPB_Halle-PB002401
InChIKey: FTVWIRXFELQLPI-ZDUSSCGKSA-N
InChI: InChI=1S/C15H12O5/c16-9-3-1-8(2-4-9)13-7-12(19)15-11(18)5-10(17)6-14(15)20-13/h1-6,13,16-18H,7H2/t13-/m0/s1
SMILES: C1[C@H](OC2=CC(=CC(=C2C1=O)O)O)C3=CC=C(C=C3)O
Precursor_type: [M-H]-
Spectrum_type: MS2
Instrument_type: LC-ESI-QTOF
Instrument: API QSTAR Pulsar i
Ion_mode: NEGATIVE
Collision_energy: 15 eV
Formula: C15H12O5
MW: 272
ExactMass: 272.06847
Comments: Parent=-1
Splash: splash10-00di-0190000000-336b30f1d35c6317597b
Num Peaks: 4
119.052 11
151.004 105
177.018 25
271.055 999

Name: Aspartic acid
Synon: 2-aminobutanedioic acid
DB#: MSBNK-IPB_Halle-PB000455
InChIKey: CKLJMWTZIZZHCS-UHFFFAOYSA-N
InChI: InChI=1S/C4H7NO4/c5-2(4(8)9)1-3(6)7/h2H,1,5H2,(H,6,7)(H,8,9)
SMILES: C(C(C(=O)O)N)C(=O)O
Precursor_type: [M+H]+
Spectrum_type: MS2
Instrument_type: LC-ESI-QTOF
Instrument: API QSTAR Pulsar i
Ion_mode: POSITIVE
Collision_energy: 30 eV
Formula: C4H7NO4
MW: 133
ExactMass: 133.03751
Comments: Parent=-1
Splash: splash10-00di-9000000000-00a41f545dcd27bf413a
Num Peaks: 10
37.028 2
43.017 162
44.049 4
46.028 116
61.028 1
64.928 1
70.027 267
74.023 999
88.038 146
106.072 5

Name: Laudanosine
Synon: 1-[(3,4-dimethoxyphenyl)methyl]-6,7-dimethoxy-2-methyl-3,4-dihydro-1H-isoquinoline
DB#: MSBNK-IPB_Halle-PB005882
InChIKey: KGPAYJZAMGEDIQ-UHFFFAOYSA-N
InChI: InChI=1S/C21H27NO4/c1-22-9-8-15-12-20(25-4)21(26-5)13-16(15)17(22)10-14-6-7-18(23-2)19(11-14)24-3/h6-7,11-13,17H,8-10H2,1-5H3
SMILES: CN1CCC2=CC(=C(C=C2C1CC3=CC(=C(C=C3)OC)OC)OC)OC
Precursor_type: [M+H]+
Spectrum_type: MS2
Instrument_type: LC-ESI-QTOF
Instrument: micrOTOF-Q
Ion_mode: POSITIVE
Collision_energy: 20 eV
Formula: C21H27NO4
MW: 357
ExactMass: 357.19401
Comments: Parent=-1
Splash: splash10-0a4i-0394000000-234e708f1e5acd6c3706
Num Peaks: 84
135.043 0
136.051 2
139.074 0
145.065 0
150.065 3
151.074 117
152.077 7
158.071 8
159.077 2
162.088 0
163.074 1
165.089 44
166.093 2
173.081 0
174.066 20
175.074 2
176.090 0
177.088 5
178.088 0
179.102 0
188.102 2
189.089 196
190.090 22
191.094 9
192.099 5
193.107 1
194.115 0
203.103 2
204.102 0
205.106 0
205.984 0
206.115 999
207.118 97
208.121 1
220.131 2
223.108 1
224.117 2
240.112 1
241.118 0
251.104 0
252.111 2
253.118 1
254.108 0
255.134 9
256.137 0
263.104 0
264.111 5
265.115 2
266.123 1
267.130 0
268.106 5
269.120 2
270.122 0
280.107 2
281.113 9
282.118 1
283.129 10
284.137 9
285.132 1
287.160 0
295.129 13
296.137 78
297.137 14
298.126 2
299.126 3
300.132 8
301.139 3
310.149 0
312.132 28
313.135 4
314.147 0
315.155 38
316.158 4
325.138 0
326.164 1
327.155 218
328.159 37
329.169 8
330.173 0
341.171 0
343.173 2
358.197 211
359.200 37
360.199 0

Name: Apomorphine
Synon: (6aS)-6-Methyl-5,6,6a,7-tetrahydro-4H-dibenzo[de,g]quinoline-10,11-diol
DB#: MSBNK-IPB_Halle-PB005947
InChIKey: VMWNQDUVQKEIOC-CYBMUJFWSA-N
InChI: InChI=1S/C17H17NO2/c1-18-8-7-10-3-2-4-12-15(10)13(18)9-11-5-6-14(19)17(20)16(11)12/h2-6,13,19-20H,7-9H2,1H3/t13-/m1/s1
SMILES: CN1CCC2=C3[C@H]1CC4=C(C3=CC=C2)C(=C(C=C4)O)O
Precursor_type: [M+H]+
Spectrum_type: MS2
Instrument_type: LC-ESI-QTOF
Instrument: micrOTOF-Q
Ion_mode: POSITIVE
Collision_energy: 20 eV
Formula: C17H17NO2
MW: 267
ExactMass: 267.12593
Comments: Parent=-1
Splash: splash10-00kr-0290000000-1e831a8078d43cfbdb51
Num Peaks: 27
179.084 1
187.053 2
188.061 0
189.069 14
190.075 17
191.084 454
192.087 54
193.091 1
200.060 7
201.068 21
202.074 7
205.064 1
207.079 8
208.082 2
209.091 1
218.071 17
219.078 957
220.082 148
221.084 5
225.089 0
233.091 0
236.076 0
237.088 999
238.092 144
239.096 7
268.129 19
269.135 2

Name: Benzoylcholine
Synon: 2-(benzoyloxy)ethyl-trimethylazanium
DB#: MSBNK-IPB_Halle-PB000310
InChIKey: HOPVGFKDVOOCHD-UHFFFAOYSA-N
InChI: InChI=1S/C12H18NO2/c1-13(2,3)9-10-15-12(14)11-7-5-4-6-8-11/h4-8H,9-10H2,1-3H3/q+1
SMILES: C[N+](C)(C)CCOC(=O)C1=CC=CC=C1
Precursor_type: [M]+
Spectrum_type: MS2
Instrument_type: LC-ESI-QTOF
Instrument: API QSTAR Pulsar i
Ion_mode: POSITIVE
Collision_energy: 15 eV
Formula: [C12H18NO2]+
MW: 208
ExactMass: 208.13375
Comments: Parent=-1
Splash: splash10-0a4j-0890000000-4e08b05b520b50c38bf9
Num Peaks: 2
149.059 961
208.133 999

Name: Biochanin A O-diglucoside methylmalonylated
DB#: MSBNK-IPB_Halle-PN000105
InChI: N/A
SMILES: N/A
Precursor_type: [M+H]+
Spectrum_type: MS2
PrecursorMZ: 709.197
Instrument_type: ESI-TOF
Instrument: micrOTOF-Q
Ion_mode: POSITIVE
Collision_energy: 15 eV
Formula: C32H36O18
MW: 708
ExactMass: 708.190164312
Comments: Parent=709.197
Splash: splash10-000i-0090000100-84adf6ccf9536bb07420
Num Peaks: 2
285.0800 999
709.1962 189

Name: 4-methoxy-1H-indole-3-carbaldehyde
DB#: MSBNK-IPB_Halle-PB000529
InChIKey: GDVCEQRAPMIJBG-UHFFFAOYSA-N
InChI: InChI=1S/C10H9NO2/c1-13-9-4-2-3-8-10(9)7(6-12)5-11-8/h2-6,11H,1H3
SMILES: COC1=CC=CC2=C1C(=CN2)C=O
Precursor_type: [M+H]+
Spectrum_type: MS2
PrecursorMZ: 176.07115
Instrument_type: LC-ESI-QTOF
Instrument: API QSTAR Pulsar i
Ion_mode: POSITIVE
Collision_energy: 40 eV
Formula: C10H9NO2
MW: 175
ExactMass: 175.06333
Comments: Parent=176.07115
Splash: splash10-03di-0900000000-39344e80f4e5c8fe61a7
Num Peaks: 16
89.038 44
91.054 36
103.049 24
104.050 338
105.057 134
116.049 42
117.057 101
118.065 51
131.035 84
132.043 111
133.051 148
143.040 19
146.060 40
159.031 62
160.039 999
161.047 160

Name: Cystine
Synon: 2-amino-3-(2-amino-3-hydroxy-3-oxopropyl)disulfanylpropanoic acid
DB#: MSBNK-IPB_Halle-PB000446
InChIKey: LEVWYRKDKASIDU-UHFFFAOYSA-N
InChI: InChI=1S/C6H12N2O4S2/c7-3(5(9)10)1-13-14-2-4(8)6(11)12/h3-4H,1-2,7-8H2,(H,9,10)(H,11,12)
SMILES: C(C(C(=O)O)N)SSCC(C(=O)O)N
Precursor_type: [M+H]+
Spectrum_type: MS2
Instrument_type: LC-ESI-QTOF
Instrument: API QSTAR Pulsar i
Ion_mode: POSITIVE
Collision_energy: 20 eV
Formula: C6H12N2O4S2
MW: 240
ExactMass: 240.02385
Comments: Parent=-1
Splash: splash10-0uk9-0910000000-283df2d1c0bf1d91f325
Num Peaks: 26
57.073 4
69.073 7
71.087 3
73.029 2
74.025 133
83.087 6
84.962 15
88.040 12
90.056 6
97.104 7
111.118 3
120.012 478
121.015 2
121.103 3
122.028 337
136.972 8
137.038 6
139.113 3
151.984 999
152.986 8
154.000 72
178.000 34
195.025 94
205.993 5
224.004 12
241.031 232

Name: Genistein 4',7-O-diglucoside malonylated
DB#: MSBNK-IPB_Halle-PN000033
InChI: N/A
SMILES: N/A
Precursor_type: [M+H]+
Spectrum_type: MS2
PrecursorMZ: 681.168
Instrument_type: ESI-TOF
Instrument: micrOTOF-Q
Ion_mode: POSITIVE
Collision_energy: 15 eV
Formula: C30H32O18
MW: 680
ExactMass: 680.158864184
Comments: Parent=681.168
Splash: splash10-001i-0030839000-d7ae3cc1e6f1cb6a4926
Num Peaks: 5
271.0590 438
433.1136 999
519.1161 400
681.1710 753
682.1664 335

Name: Allocryptopine
Synon: [1,3]Benzodioxolo[5,6-e][2]benzazecin-14(6H)-one, 5,7,8,15-tetrahydro-3,4-dimethoxy-6-methyl-
DB#: MSBNK-IPB_Halle-PB001448
InChIKey: HYBRYAPKQCZIAE-UHFFFAOYSA-N
InChI: InChI=1S/C21H23NO5/c1-22-7-6-14-9-19-20(27-12-26-19)10-15(14)17(23)8-13-4-5-18(24-2)21(25-3)16(13)11-22/h4-5,9-10H,6-8,11-12H2,1-3H3
SMILES: CN1CCC2=CC3=C(C=C2C(=O)CC4=C(C1)C(=C(C=C4)OC)OC)OCO3
Precursor_type: [M+H]+
Spectrum_type: MS2
Instrument_type: LC-ESI-QQ
Instrument: TSQ 7000
Ion_mode: POSITIVE
Collision_energy: 30 eV
Formula: C21H23NO5
MW: 369
ExactMass: 369.15762
Comments: Parent=-1
Splash: splash10-0079-0947000000-dbfcc1bba5d24e61d1d8
Num Peaks: 158
32.000 5
33.000 1
44.000 42
45.000 10
58.000 5
59.000 1
75.000 0
91.000 1
105.000 0
119.000 2
121.000 2
123.000 0
131.000 1
132.000 1
133.000 0
135.000 19
136.000 5
137.000 0
138.000 3
139.000 0
146.000 0
147.000 0
148.000 1
149.000 73
150.000 6
151.000 53
152.000 1
153.000 26
154.000 0
159.000 5
160.000 2
161.000 10
162.000 5
163.000 13
164.000 1
165.000 109
166.000 38
167.000 0
173.000 2
174.000 0
175.000 5
176.000 14
177.000 19
178.000 33
179.000 12
180.000 0
181.000 208
182.000 2
185.000 0
187.000 9
188.000 943
189.000 404
190.000 86
191.000 49
192.000 32
193.000 14
200.000 2
201.000 0
202.000 3
204.000 30
205.000 0
206.000 284
207.000 0
209.000 0
210.000 4
217.000 0
218.000 0
219.000 0
222.000 7
223.000 0
226.000 5
227.000 1
232.000 1
233.000 0
234.000 0
235.000 0
238.000 10
239.000 1
241.000 21
242.000 1
246.000 0
247.000 1
248.000 3
249.000 1
250.000 10
251.000 9
252.000 8
253.000 10
254.000 9
255.000 1
259.000 1
260.000 8
261.000 6
262.000 1
263.000 13
264.000 2
265.000 4
266.000 8
267.000 2
268.000 5
269.000 23
274.000 2
275.000 12
276.000 13
277.000 4
278.000 30
279.000 15
280.000 8
281.000 31
282.000 2
283.000 22
285.000 1
286.000 0
288.000 0
289.000 8
290.000 389
291.000 46
292.000 18
293.000 7
294.000 37
295.000 3
296.000 3
297.000 3
299.000 6
304.000 2
305.000 3
306.000 88
307.000 16
308.000 16
309.000 40
310.000 3
311.000 30
312.000 0
316.000 0
317.000 0
318.000 3
319.000 2
320.000 32
321.000 68
322.000 60
323.000 14
324.000 3
327.000 16
334.000 3
335.000 2
336.000 96
337.000 69
338.000 1
339.000 33
340.000 7
341.000 1
350.000 37
352.000 261
353.000 3
355.000 0
369.000 1
370.000 999
371.000 0

Name: Coumarin
Synon: chromen-2-one
DB#: MSBNK-IPB_Halle-PB004703
InChIKey: ZYGHJZDHTFUPRJ-UHFFFAOYSA-N
InChI: InChI=1S/C9H6O2/c10-9-6-5-7-3-1-2-4-8(7)11-9/h1-6H
SMILES: C1=CC=C2C(=C1)C=CC(=O)O2
Precursor_type: [M+H]+
Spectrum_type: MS2
Instrument_type: LC-ESI-QQ
Instrument: TSQ QUANTUM AM
Ion_mode: POSITIVE
Collision_energy: 28 eV
Formula: C9H6O2
MW: 146
ExactMass: 146.03678
Comments: Parent=-1
Splash: splash10-0006-9100000000-161d49edf4310e8a785c
Num Peaks: 38
39.000 1
40.000 0
41.000 3
42.000 6
43.000 4
44.000 5
45.000 6
47.000 0
51.000 6
55.000 3
56.000 3
57.000 9
60.000 10
61.000 1
63.000 10
64.000 1
65.000 288
67.000 4
69.000 5
75.000 0
77.000 281
82.000 0
84.000 13
85.000 0
91.000 999
97.000 1
101.000 4
102.000 10
103.000 172
106.000 7
107.000 0
109.000 0
111.000 4
117.000 0
119.000 4
129.000 2
132.000 3
147.000 22

Name: Cinnamoylcholine
Synon: trimethyl-[2-[(E)-3-phenylprop-2-enoyl]oxyethyl]azanium
DB#: MSBNK-IPB_Halle-PB000348
InChIKey: JSIOTGHMQGLKET-MDZDMXLPSA-N
InChI: InChI=1S/C14H20NO2/c1-15(2,3)11-12-17-14(16)10-9-13-7-5-4-6-8-13/h4-10H,11-12H2,1-3H3/q+1/b10-9+
SMILES: C[N+](C)(C)CCOC(=O)/C=C/C1=CC=CC=C1
Precursor_type: [M]+
Spectrum_type: MS2
Instrument_type: LC-ESI-QTOF
Instrument: API QSTAR Pulsar i
Ion_mode: POSITIVE
Collision_energy: 15 eV
Formula: [C14H20NO2]+
MW: 234
ExactMass: 234.14940
Comments: Parent=-1
Splash: splash10-003r-0890000000-0ecc72b62e7e17bd8628
Num Peaks: 2
175.076 942
234.152 999

Name: Rifampicin
Synon: 5,6,9,17,19,21-Hexahydroxy-23-methoxy- 2,4,12,16,18,20,22-heptamethyl-8-[N-(4-methyl- 1-piperazinyl)formimidoyl]-2,7-(epoxypentadeca- [1,11,13]trienimino)-naphtho[2,1-b]furan- 1,11(2H)-dion-21-acetat
DB#: MSBNK-IPB_Halle-PB005805
InChIKey: JQXXHWHPUNPDRT-WLSIYKJHSA-N
InChI: InChI=1S/C43H58N4O12/c1-21-12-11-13-22(2)42(55)45-33-28(20-44-47-17-15-46(9)16-18-47)37(52)30-31(38(33)53)36(51)26(6)40-32(30)41(54)43(8,59-40)57-19-14-29(56-10)23(3)39(58-27(7)48)25(5)35(50)24(4)34(21)49/h11-14,19-21,23-25,29,34-35,39,49-53H,15-18H2,1-10H3,(H,45,55)/b12-11+,19-14+,22-13-,44-20+/t21-,23+,24+,25+,29-,34-,35+,39+,43-/m0/s1
SMILES: C[C@H]1/C=C/C=C(C(=O)NC2=C(C(=C3C(=C2O)C(=C(C4=C3C(=O)[C@](O4)(O/C=C/[C@@H]([C@H]([C@H]([C@@H]([C@@H]([C@@H]([C@H]1O)C)O)C)OC(=O)C)C)OC)C)C)O)O)/C=N/N5CCN(CC5)C)/C
Precursor_type: [M+H]+
Spectrum_type: MS2
Instrument_type: LC-ESI-QTOF
Instrument: micrOTOF-Q
Ion_mode: POSITIVE
Collision_energy: 10 eV
Formula: C43H58N4O12
MW: 822
ExactMass: 822.40512
Comments: Parent=-1
Splash: splash10-00di-0000000390-491cc3b526a65f0cb955
Num Peaks: 50
151.075 0
163.111 0
179.104 2
191.106 0
209.114 0
269.187 0
271.164 0
279.172 0
289.175 1
297.181 6
315.192 6
333.200 5
334.208 0
375.215 1
397.146 11
398.152 2
399.162 26
400.163 3
437.142 1
519.217 1
789.361 19
790.366 8
791.377 440
791.787 1
792.380 177
792.659 0
792.945 0
793.384 34
793.824 0
794.380 1
818.888 0
819.069 0
821.387 58
821.545 0
822.393 35
822.567 0
822.752 1
823.012 0
823.404 999
823.592 5
824.035 0
824.173 1
824.407 455
824.825 0
825.180 0
825.408 98
825.595 1
825.803 0
826.067 0
826.410 8

Name: Codeine
Synon: 7,8-Didehydro-4,5-epoxy-3-methoxy-17-methyl-(5,6)-morphinan-6-ol
DB#: MSBNK-IPB_Halle-PB001606
InChIKey: OROGSEYTTFOCAN-DNJOTXNNSA-N
InChI: InChI=1S/C18H21NO3/c1-19-8-7-18-11-4-5-13(20)17(18)22-16-14(21-2)6-3-10(15(16)18)9-12(11)19/h3-6,11-13,17,20H,7-9H2,1-2H3/t11-,12+,13-,17-,18-/m0/s1
SMILES: CN1CC[C@]23[C@@H]4[C@H]1CC5=C2C(=C(C=C5)OC)O[C@H]3[C@H](C=C4)O
Precursor_type: [M+H]+
Spectrum_type: MS2
Instrument_type: LC-ESI-QQ
Instrument: TSQ 7000
Ion_mode: POSITIVE
Collision_energy: 35 eV
Formula: C18H21NO3
MW: 299
ExactMass: 299.15214
Comments: Parent=-1
Splash: splash10-0uyi-1952000000-3db61b1a0c8cde5b8c82
Num Peaks: 188
30.000 9
31.000 4
32.000 1
41.000 0
42.000 2
43.000 8
44.000 124
45.000 4
46.000 0
55.000 29
56.000 9
57.000 28
58.000 226
59.000 3
60.000 1
67.000 7
69.000 8
70.000 2
71.000 5
77.000 3
79.000 4
81.000 6
82.000 0
83.000 9
84.000 0
91.000 11
93.000 8
94.000 2
95.000 5
96.000 1
97.000 4
103.000 4
105.000 3
106.000 0
107.000 5
108.000 2
109.000 0
115.000 11
116.000 0
117.000 3
119.000 2
120.000 1
121.000 24
122.000 1
123.000 0
124.000 0
127.000 4
128.000 12
129.000 14
130.000 0
131.000 14
132.000 7
133.000 2
134.000 2
135.000 1
136.000 0
137.000 64
138.000 1
139.000 0
141.000 38
142.000 3
143.000 15
144.000 54
145.000 15
146.000 12
147.000 6
148.000 2
149.000 5
150.000 2
151.000 5
152.000 12
153.000 99
154.000 18
155.000 184
156.000 32
157.000 19
158.000 41
159.000 100
160.000 13
161.000 155
162.000 11
163.000 6
164.000 9
165.000 322
166.000 27
167.000 32
168.000 54
169.000 24
170.000 14
171.000 147
172.000 77
173.000 19
174.000 25
175.000 48
176.000 6
177.000 18
178.000 27
179.000 38
180.000 12
181.000 188
182.000 52
183.000 311
184.000 34
185.000 71
186.000 44
187.000 195
188.000 8
189.000 12
190.000 15
191.000 71
192.000 17
193.000 151
194.000 129
195.000 36
196.000 8
197.000 74
198.000 59
199.000 429
200.000 65
201.000 53
202.000 13
203.000 17
204.000 2
205.000 11
206.000 5
207.000 27
208.000 27
209.000 108
210.000 66
211.000 57
212.000 51
213.000 101
214.000 14
215.000 406
216.000 10
217.000 1
218.000 9
219.000 37
220.000 33
221.000 54
222.000 12
223.000 94
224.000 16
225.000 294
226.000 22
227.000 16
228.000 18
229.000 4
230.000 3
231.000 0
232.000 0
233.000 2
234.000 3
235.000 10
236.000 32
237.000 13
238.000 22
239.000 24
240.000 5
241.000 132
242.000 9
243.000 127
244.000 8
248.000 8
249.000 4
250.000 26
251.000 34
252.000 18
253.000 16
254.000 9
256.000 2
257.000 1
264.000 0
265.000 1
266.000 78
267.000 30
268.000 5
269.000 5
270.000 0
272.000 0
280.000 0
282.000 31
283.000 2
285.000 10
298.000 1
299.000 4
300.000 999
301.000 64

Name: Luteolin 7-O-glucoside
Synon: Luteolin-7-O-glucoside
Synon: 7-O-Beta-D-Glucosyl-5,7,3',4'-tetrahydroxyflavone
Synon: Cynaroside
Synon: Glucoluteolin
Synon: Luteoloside
DB#: MSBNK-IPB_Halle-PN000060
InChIKey: PEFNSGRTCBGNAN-QNDFHXLGSA-N
InChI: InChI=1S/C21H20O11/c22-7-16-18(27)19(28)20(29)21(32-16)30-9-4-12(25)17-13(26)6-14(31-15(17)5-9)8-1-2-10(23)11(24)3-8/h1-6,16,18-25,27-29H,7H2/t16-,18-,19+,20-,21-/m1/s1
SMILES: C1=CC(=C(C=C1C2=CC(=O)C3=C(C=C(C=C3O2)O[C@H]4[C@@H]([C@H]([C@@H]([C@H](O4)CO)O)O)O)O)O)O
Precursor_type: [M+H]+
Spectrum_type: MS2
PrecursorMZ: 449.109
Instrument_type: ESI-TOF
Instrument: micrOTOF-Q
Ion_mode: POSITIVE
Collision_energy: 15 eV
Formula: C21H20O11
MW: 448
ExactMass: 448.10056146
Comments: Parent=449.109
Splash: splash10-000i-0090000000-8f96b4ff917915ae69b2
Num Peaks: 5
287.055 999
288.059 111
289.062 15
449.105 13
450.111 3

Name: Thebaine
Synon: Morphinan, 6,7,8,14-tetradehydro-4,5-epoxy-3,6-dimethoxy-17-methyl-, (5.alpha.)-
DB#: MSBNK-IPB_Halle-PB003641
InChIKey: FQXXSQDCDRQNQE-UHFFFAOYSA-N
InChI: InChI=1S/C19H21NO3/c1-20-9-8-19-12-5-7-15(22-3)18(19)23-17-14(21-2)6-4-11(16(17)19)10-13(12)20/h4-7,13,18H,8-10H2,1-3H3
SMILES: CN1CCC23C4C(=CC=C2C1CC5=C3C(=C(C=C5)OC)O4)OC
Precursor_type: [M+H]+
Spectrum_type: MS2
Instrument_type: LC-ESI-QQ
Instrument: TSQ 7000
Ion_mode: POSITIVE
Collision_energy: 25 eV
Formula: C19H21NO3
MW: 311
ExactMass: 311.15214
Comments: Parent=-1
Splash: splash10-0a4i-6091000000-ffa57ed65751978e70f6
Num Peaks: 81
30.000 2
31.000 0
43.000 0
44.000 10
45.000 0
56.000 1
57.000 0
58.000 999
59.000 0
167.000 1
177.000 4
178.000 2
179.000 0
180.000 0
181.000 1
189.000 1
191.000 3
193.000 8
194.000 1
195.000 22
196.000 1
197.000 1
201.000 0
202.000 0
203.000 3
205.000 5
206.000 4
207.000 3
208.000 0
209.000 9
210.000 2
212.000 2
213.000 3
217.000 9
218.000 57
219.000 6
220.000 1
221.000 120
222.000 10
223.000 77
224.000 8
225.000 6
226.000 0
227.000 5
231.000 1
232.000 7
233.000 0
234.000 31
235.000 5
236.000 3
237.000 45
238.000 7
239.000 7
240.000 6
241.000 2
247.000 0
248.000 8
249.000 198
250.000 12
251.000 187
252.000 13
253.000 13
254.000 19
255.000 73
256.000 5
263.000 2
264.000 0
265.000 6
266.000 235
267.000 8
268.000 0
269.000 9
280.000 14
281.000 137
282.000 12
283.000 2
296.000 0
297.000 16
298.000 0
312.000 247
313.000 21

Name: Kinetin
Synon: N-(furan-2-ylmethyl)-7H-purin-6-amine
DB#: MSBNK-IPB_Halle-PB000629
InChIKey: QANMHLXAZMSUEX-UHFFFAOYSA-N
InChI: InChI=1S/C10H9N5O/c1-2-7(16-3-1)4-11-9-8-10(13-5-12-8)15-6-14-9/h1-3,5-6H,4H2,(H2,11,12,13,14,15)
SMILES: C1=COC(=C1)CNC2=NC=NC3=C2NC=N3
Precursor_type: [M+H]+
Spectrum_type: MS2
Instrument_type: LC-ESI-QTOF
Instrument: API QSTAR Pulsar i
Ion_mode: POSITIVE
Collision_energy: 40 eV
Formula: C10H9N5O
MW: 215
ExactMass: 215.08071
Comments: Parent=-1
Splash: splash10-001i-9000000000-ae066c9cd1bdc816afb5
Num Peaks: 5
53.039 97
81.034 999
119.037 19
136.062 13
148.062 26

Name: Laudanosine
Synon: 1-[(3,4-dimethoxyphenyl)methyl]-6,7-dimethoxy-2-methyl-3,4-dihydro-1H-isoquinoline
DB#: MSBNK-IPB_Halle-PB005881
InChIKey: KGPAYJZAMGEDIQ-UHFFFAOYSA-N
InChI: InChI=1S/C21H27NO4/c1-22-9-8-15-12-20(25-4)21(26-5)13-16(15)17(22)10-14-6-7-18(23-2)19(11-14)24-3/h6-7,11-13,17H,8-10H2,1-5H3
SMILES: CN1CCC2=CC(=C(C=C2C1CC3=CC(=C(C=C3)OC)OC)OC)OC
Precursor_type: [M+H]+
Spectrum_type: MS2
Instrument_type: LC-ESI-QTOF
Instrument: micrOTOF-Q
Ion_mode: POSITIVE
Collision_energy: 15 eV
Formula: C21H27NO4
MW: 357
ExactMass: 357.19401
Comments: Parent=-1
Splash: splash10-0a4i-0079000000-7c4d9c2e5dbc7053b062
Num Peaks: 45
151.074 26
152.076 0
158.072 0
165.089 11
166.092 0
174.067 3
177.087 0
188.103 0
189.089 62
190.090 8
191.096 2
192.100 0
203.104 0
205.979 0
206.115 999
207.118 94
208.122 0
220.131 0
255.133 2
264.111 1
268.106 0
281.113 0
283.128 4
284.135 1
295.128 7
296.137 20
297.140 4
298.128 0
299.122 0
300.134 1
301.140 0
312.132 6
313.133 0
315.154 37
316.159 4
326.170 1
327.155 225
328.159 37
329.170 9
330.175 0
341.171 1
343.173 0
358.197 903
359.200 154
360.203 3

Name: Aminocaproic acid
Synon: 6-aminohexanoic acid
DB#: MSBNK-IPB_Halle-PB000469
InChIKey: SLXKOJJOQWFEFD-UHFFFAOYSA-N
InChI: InChI=1S/C6H13NO2/c7-5-3-1-2-4-6(8)9/h1-5,7H2,(H,8,9)
SMILES: C(CCC(=O)O)CCN
Precursor_type: [M+H]+
Spectrum_type: MS2
Instrument_type: LC-ESI-QTOF
Instrument: API QSTAR Pulsar i
Ion_mode: POSITIVE
Collision_energy: 15 eV
Formula: C6H13NO2
MW: 131
ExactMass: 131.09463
Comments: Parent=-1
Splash: splash10-03e9-2900000000-5a4b7c29f57f4a21bbf1
Num Peaks: 9
68.051 5
69.071 138
73.066 28
79.055 53
96.083 83
97.067 148
114.093 999
115.077 134
132.103 746

Name: Tryptophan
Synon: (2S)-2-amino-3-(1H-indol-3-yl)propanoic acid
DB#: MSBNK-IPB_Halle-PB006084
InChIKey: QIVBCDIJIAJPQS-VIFPVBQESA-N
InChI: InChI=1S/C11H12N2O2/c12-9(11(14)15)5-7-6-13-10-4-2-1-3-8(7)10/h1-4,6,9,13H,5,12H2,(H,14,15)/t9-/m0/s1
SMILES: C1=CC=C2C(=C1)C(=CN2)C[C@@H](C(=O)O)N
Precursor_type: [M+H]+
Spectrum_type: MS2
Instrument_type: LC-ESI-QTOF
Instrument: micrOTOF-Q
Ion_mode: POSITIVE
Collision_energy: 20 eV
Formula: C11H12N2O2
MW: 204
ExactMass: 204.08988
Comments: Parent=-1
Splash: splash10-00kg-0900000000-b1fdf0c754d5a54a9297
Num Peaks: 31
115.053 101
116.056 14
117.058 127
118.064 609
119.067 56
126.046 0
127.053 25
128.052 15
129.055 2
130.064 133
131.068 19
132.079 250
133.082 22
140.048 8
141.055 3
142.064 211
143.071 411
144.079 421
145.075 45
145.967 0
146.059 999
147.062 93
148.065 1
158.082 6
159.090 137
160.078 32
161.074 1
170.058 226
171.061 22
188.069 66
189.071 8

Name: Genistein 8-C-glucoside
DB#: MSBNK-IPB_Halle-PN000015
InChIKey: HIWJJOYYZFELEZ-FFYOZGDPSA-N
InChI: InChI=1S/C21H20O10/c22-6-13-17(27)18(28)19(29)21(31-13)15-12(25)5-11(24)14-16(26)10(7-30-20(14)15)8-1-3-9(23)4-2-8/h1-5,7,13,17-19,21-25,27-29H,6H2/t13-,17-,18+,19-,21+/m1/s1
SMILES: C1=CC(=CC=C1C2=COC3=C(C2=O)C(=CC(=C3[C@H]4[C@@H]([C@H]([C@@H]([C@H](O4)CO)O)O)O)O)O)O
Precursor_type: [M+H]+
Spectrum_type: MS2
PrecursorMZ: 433.116
Instrument_type: ESI-TOF
Instrument: micrOTOF-Q
Ion_mode: POSITIVE
Collision_energy: 15 eV
Formula: C21H20O10
MW: 432
ExactMass: 432.10564683999996
Comments: Parent=433.116
Splash: splash10-00kb-0009500000-26078341f876bb1d4afa
Num Peaks: 36
217.0502 5
243.0305 5
283.0608 47
284.0641 16
295.0636 14
297.0768 6
311.0597 8
313.0713 279
314.0767 32
315.0777 8
323.0882 11
325.0724 4
337.0738 42
338.0758 6
343.0830 32
344.0872 5
349.0583 6
351.0887 40
352.0878 9
355.0801 20
356.0844 4
367.0828 210
368.0870 28
369.0914 16
379.0815 211
380.0888 28
381.0897 6
397.0938 999
398.0993 114
399.1009 28
415.1056 785
416.1063 108
417.1149 18
433.1159 386
434.1184 62
435.1253 17

Name: Luteone 4',7-O-diglucoside
DB#: MSBNK-IPB_Halle-PN000019
InChIKey: JVOLPASYNIPHBV-HCSHWHRSSA-N
InChI: InChI=1S/C32H38O16/c1-12(2)3-5-15-18(46-32-30(43)28(41)26(39)21(10-34)48-32)8-19-22(23(15)36)24(37)16(11-44-19)14-6-4-13(7-17(14)35)45-31-29(42)27(40)25(38)20(9-33)47-31/h3-4,6-8,11,20-21,25-36,38-43H,5,9-10H2,1-2H3/t20-,21-,25-,26-,27+,28+,29-,30-,31-,32-/m1/s1
SMILES: C1=CC(=CC(=C1C3=COC2=CC(=C(C(=C2C3=O)O)CC=C(C)C)O[C@H]4[C@@H]([C@H]([C@@H]([C@H](O4)CO)O)O)O)O)O[C@H]5[C@@H]([C@H]([C@@H]([C@H](O5)CO)O)O)O
Precursor_type: [M-H]-
Spectrum_type: MS2
PrecursorMZ: 677.211
Instrument_type: ESI-TOF
Instrument: micrOTOF-Q
Ion_mode: NEGATIVE
Collision_energy: 25 eV
Formula: C32H38O16
MW: 678
ExactMass: 678.215985136
Comments: Parent=677.211
Splash: splash10-014i-0002090000-9606a08bdf9705c362ee
Num Peaks: 3
353.105 315
515.162 999
516.167 262

Name: Amentoflavone
Synon: 8-[5-(5,7-dihydroxy-4-oxochromen-2-yl)-2-hydroxyphenyl]-5,7-dihydroxy-2-(4-hydroxyphenyl)chromen-4-one
DB#: MSBNK-IPB_Halle-PB006304
InChIKey: YUSWMAULDXZHPY-UHFFFAOYSA-N
InChI: InChI=1S/C30H18O10/c31-15-4-1-13(2-5-15)24-12-23(38)29-21(36)10-20(35)27(30(29)40-24)17-7-14(3-6-18(17)33)25-11-22(37)28-19(34)8-16(32)9-26(28)39-25/h1-12,31-36H
SMILES: C1=CC(=CC=C1C2=CC(=O)C3=C(O2)C(=C(C=C3O)O)C4=C(C=CC(=C4)C5=CC(=O)C6=C(C=C(C=C6O5)O)O)O)O
Precursor_type: [M+H]+
Spectrum_type: MS2
Instrument_type: LC-ESI-QTOF
Instrument: micrOTOF-Q
Ion_mode: POSITIVE
Collision_energy: 15 eV
Formula: C30H18O10
MW: 538
ExactMass: 538.09000
Comments: Parent=-1
Splash: splash10-000i-0000090000-e1b205013e032e02da57
Num Peaks: 17
377.059 0
403.037 0
538.500 0
538.622 0
538.748 1
539.090 999
539.420 0
539.518 0
539.655 1
539.737 0
539.947 0
540.095 278
540.240 0
540.321 0
540.428 0
540.554 0
541.096 27

Name: Genistein
Synon: 5,7-dihydroxy-3-(4-hydroxyphenyl)chromen-4-one
DB#: MSBNK-IPB_Halle-PB005715
InChIKey: TZBJGXHYKVUXJN-UHFFFAOYSA-N
InChI: InChI=1S/C15H10O5/c16-9-3-1-8(2-4-9)11-7-20-13-6-10(17)5-12(18)14(13)15(11)19/h1-7,16-18H
SMILES: C1=CC(=CC=C1C2=COC3=CC(=CC(=C3C2=O)O)O)O
Precursor_type: [M+H]+
Spectrum_type: MS2
Instrument_type: LC-ESI-QTOF
Instrument: micrOTOF-Q
Ion_mode: POSITIVE
Collision_energy: 25 eV
Formula: C15H10O5
MW: 270
ExactMass: 270.05282
Comments: Parent=-1
Splash: splash10-0g4i-0390000000-32e5ad3ba5c1dab47e34
Num Peaks: 104
115.052 5
117.068 1
119.047 8
121.027 9
127.051 1
128.060 6
129.068 4
131.047 23
131.084 1
132.052 0
133.026 3
133.063 1
134.032 0
135.041 7
136.045 0
137.022 6
141.068 49
142.072 3
144.055 5
145.028 51
146.031 1
147.042 15
147.078 6
148.081 0
149.021 99
150.028 13
151.049 1
152.061 5
153.016 349
154.019 20
155.046 6
157.064 6
159.042 49
160.046 3
161.054 0
163.040 2
165.016 31
166.019 0
168.055 1
169.062 99
170.065 9
171.034 1
173.056 18
174.065 0
175.073 11
176.075 0
177.015 0
177.056 0
178.021 2
179.042 1
181.061 7
183.036 18
184.046 4
185.055 11
186.062 1
187.070 42
188.041 0
188.076 3
191.033 5
196.050 0
197.057 122
198.060 21
199.069 2
200.044 29
201.052 22
202.056 1
203.036 1
203.067 0
205.047 0
207.038 0
209.045 0
211.035 9
213.051 34
214.058 6
215.067 550
216.070 68
217.063 3
219.064 4
224.041 1
225.052 66
226.058 23
227.066 17
228.039 15
229.046 18
230.049 0
235.034 3
241.045 6
242.054 29
242.817 0
243.061 452
244.064 58
245.069 1
247.057 4
252.037 2
253.046 304
253.199 0
254.048 45
255.053 1
269.034 0
271.056 999
271.349 0
271.427 0
272.059 150
273.062 8

Name: 5-methoxyindole-3-carbaldehyde
DB#: MSBNK-IPB_Halle-PB000502
InChIKey: TUWARWGEOHQXCO-UHFFFAOYSA-N
InChI: InChI=1S/C10H9NO2/c1-13-8-2-3-10-9(4-8)7(6-12)5-11-10/h2-6,11H,1H3
SMILES: COC1=CC2=C(C=C1)NC=C2C=O
Precursor_type: [M+H]+
Spectrum_type: MS2
Instrument_type: LC-ESI-QTOF
Instrument: API QSTAR Pulsar i
Ion_mode: POSITIVE
Collision_energy: 30 eV
Formula: C10H9NO2
MW: 175
ExactMass: 175.06333
Comments: Parent=-1
Splash: splash10-00lr-0900000000-f6bc8aa3893b00980792
Num Peaks: 23
77.038 4
78.044 1
79.040 6
89.038 8
91.053 22
93.069 2
104.049 23
105.058 254
106.060 3
116.049 113
117.058 395
118.064 31
120.081 5
121.064 70
132.043 56
133.051 999
134.058 50
144.054 27
147.067 43
148.075 275
149.078 2
161.045 3
176.071 4

Name: Safranin
Synon: 3,7-dimethyl-10-phenylphenazin-10-ium-2,8-diamine
DB#: MSBNK-IPB_Halle-PB005963
InChIKey: WULISCVZERSMML-UHFFFAOYSA-O
InChI: InChI=1S/C20H18N4/c1-12-8-17-19(10-15(12)21)24(14-6-4-3-5-7-14)20-11-16(22)13(2)9-18(20)23-17/h3-11H,1-2H3,(H3,21,22)/p+1
SMILES: CC1=CC2=C(C=C1N)[N+](=C3C=C(C(=CC3=N2)C)N)C4=CC=CC=C4
Precursor_type: [M]+
Spectrum_type: MS2
Instrument_type: LC-ESI-QTOF
Instrument: micrOTOF-Q
Ion_mode: POSITIVE
Collision_energy: 20 eV
Formula: [C20H19N4]+
MW: 315
ExactMass: 315.16097
Comments: Parent=-1
Splash: splash10-014i-0009000000-d76884d15cd54658d12c
Num Peaks: 8
238.118 2
298.128 1
299.125 2
300.132 1
314.925 0
315.156 999
316.159 164
317.162 1

Name: Luteone O-glucosylglucoside
DB#: MSBNK-IPB_Halle-PN000081
InChI: N/A
SMILES: N/A
Precursor_type: [M-H]-
Spectrum_type: MS2
PrecursorMZ: 677.208
Instrument_type: ESI-TOF
Instrument: micrOTOF-Q
Ion_mode: NEGATIVE
Collision_energy: 25 eV
Formula: C32H38O16
MW: 678
ExactMass: 678.215985136
Comments: Parent=677.208
Splash: splash10-0gb9-0005090000-651adf0970eafd0c61a6
Num Peaks: 2
353.101 634
515.167 999

Name: Indole-3-acetyl-L-valine
Synon: (2S)-2-[[2-(1H-indol-3-yl)acetyl]amino]-3-methylbutanoic acid
DB#: MSBNK-IPB_Halle-PB000552
InChIKey: AZEGJHGXTSUPPG-AWEZNQCLSA-N
InChI: InChI=1S/C15H18N2O3/c1-9(2)14(15(19)20)17-13(18)7-10-8-16-12-6-4-3-5-11(10)12/h3-6,8-9,14,16H,7H2,1-2H3,(H,17,18)(H,19,20)/t14-/m0/s1
SMILES: CC(C)[C@@H](C(=O)O)NC(=O)CC1=CNC2=CC=CC=C21
Precursor_type: [M+H]+
Spectrum_type: MS2
Instrument_type: LC-ESI-QTOF
Instrument: API QSTAR Pulsar i
Ion_mode: POSITIVE
Collision_energy: 25 eV
Formula: C15H18N2O3
MW: 274
ExactMass: 274.13174
Comments: Parent=-1
Splash: splash10-001i-2910000000-2350c9b928a9ad8c6e72
Num Peaks: 4
72.081 368
118.088 210
130.066 999
229.133 174

Name: Scoparin
Synon: Chrysoeriol 8-C-glucoside
Synon: 8-beta-D-Glucopyranosyl-5,7-dihydroxy-2-(4-hydroxy-3-methoxyphenyl)-4H-1-benzopyran-4-one
Synon: 8-C-beta-D-Glucopyranosylchrysoeriol
DB#: MSBNK-IPB_Halle-PN000017
InChIKey: YXHFXGHAELQJGK-PGPONNFDSA-N
InChI: InChI=1S/C22H22O11/c1-31-14-4-8(2-3-9(14)24)13-6-12(27)16-10(25)5-11(26)17(21(16)32-13)22-20(30)19(29)18(28)15(7-23)33-22/h2-6,15,18-20,22-26,28-30H,7H2,1H3/t15-,18-,19+,20-,22+/m1/s1
SMILES: COC1=C(C=CC(=C1)C2=CC(=O)C3=C(O2)C(=C(C=C3O)O)[C@H]4[C@@H]([C@H]([C@@H]([C@H](O4)CO)O)O)O)O
Precursor_type: [M-H]-
Spectrum_type: MS2
PrecursorMZ: 461.111
Instrument_type: ESI-TOF
Instrument: micrOTOF-Q
Ion_mode: NEGATIVE
Collision_energy: 25 eV
Formula: C22H22O11
MW: 462
ExactMass: 462.116211524
Comments: Parent=461.111
Splash: splash10-0007-0059000000-99f09ba37717f6510726
Num Peaks: 6
298.048 641
299.050 172
326.042 70
341.067 999
342.067 174
371.082 122

Name: Phenylalanine
Synon: 2-amino-3-phenylpropanoic acid
DB#: MSBNK-IPB_Halle-PB000408
InChIKey: COLNVLDHVKWLRT-QMMMGPOBSA-N
InChI: InChI=1S/C9H11NO2/c10-8(9(11)12)6-7-4-2-1-3-5-7/h1-5,8H,6,10H2,(H,11,12)/t8-/m0/s1
SMILES: C1=CC=C(C=C1)C[C@@H](C(=O)O)N
Precursor_type: [M+H]+
Spectrum_type: MS2
Instrument_type: LC-ESI-QTOF
Instrument: API QSTAR Pulsar i
Ion_mode: POSITIVE
Collision_energy: 25 eV
Formula: C9H11NO2
MW: 165
ExactMass: 165.07898
Comments: Parent=-1
Splash: splash10-00di-0900000000-69b2bf3d6d4d6984237b
Num Peaks: 7
79.055 7
93.071 12
103.056 150
107.051 23
120.083 999
121.085 8
131.050 10

Name: 4-methoxy-1H-indole-3-carbaldehyde
DB#: MSBNK-IPB_Halle-PB000528
InChIKey: GDVCEQRAPMIJBG-UHFFFAOYSA-N
InChI: InChI=1S/C10H9NO2/c1-13-9-4-2-3-8-10(9)7(6-12)5-11-8/h2-6,11H,1H3
SMILES: COC1=CC=CC2=C1C(=CN2)C=O
Precursor_type: [M+H]+
Spectrum_type: MS2
PrecursorMZ: 176.07115
Instrument_type: LC-ESI-QTOF
Instrument: API QSTAR Pulsar i
Ion_mode: POSITIVE
Collision_energy: 25 eV
Formula: C10H9NO2
MW: 175
ExactMass: 175.06333
Comments: Parent=176.07115
Splash: splash10-03di-0900000000-020c099165a8fbd1056c
Num Peaks: 10
117.058 43
120.082 55
130.064 31
133.051 266
146.060 109
148.075 307
160.039 154
161.047 999
174.054 48
176.070 225

Name: Indole-3-acetonitrile
Synon: 2-(1H-indol-3-yl)acetonitrile
DB#: MSBNK-IPB_Halle-PB006045
InChIKey: DMCPFOBLJMLSNX-UHFFFAOYSA-N
InChI: InChI=1S/C10H8N2/c11-6-5-8-7-12-10-4-2-1-3-9(8)10/h1-4,7,12H,5H2
SMILES: C1=CC=C2C(=C1)C(=CN2)CC#N
Precursor_type: [M+H]+
Spectrum_type: MS2
Instrument_type: LC-ESI-QTOF
Instrument: micrOTOF-Q
Ion_mode: POSITIVE
Collision_energy: 15 eV
Formula: C10H8N2
MW: 156
ExactMass: 156.06875
Comments: Parent=-1
Splash: splash10-001i-0900000000-dba18a56ff6cbe01fe5c
Num Peaks: 14
116.047 1
117.056 398
118.059 30
128.048 14
129.053 1
129.966 0
130.063 999
130.186 0
131.066 80
132.067 0
146.058 4
155.059 14
156.064 2
157.073 3

Name: Methoxyindoleacetic acid
Synon: 2-(5-methoxy-1H-indol-3-yl)acetic acid
DB#: MSBNK-IPB_Halle-PB000521
InChIKey: COCNDHOPIHDTHK-UHFFFAOYSA-N
InChI: InChI=1S/C11H11NO3/c1-15-8-2-3-10-9(5-8)7(6-12-10)4-11(13)14/h2-3,5-6,12H,4H2,1H3,(H,13,14)
SMILES: COC1=CC2=C(C=C1)NC=C2CC(=O)O
Precursor_type: [M+H]+
Spectrum_type: MS2
Instrument_type: LC-ESI-QTOF
Instrument: API QSTAR Pulsar i
Ion_mode: POSITIVE
Collision_energy: 40 eV
Formula: C11H11NO3
MW: 205
ExactMass: 205.07389
Comments: Parent=-1
Splash: splash10-02u1-0900000000-fc96484038377a19704e
Num Peaks: 29
45.033 7
77.035 35
79.053 22
89.037 6
90.045 47
91.053 15
95.047 4
101.039 5
103.055 195
104.050 39
105.069 26
115.053 8
116.048 8
117.057 900
118.050 103
119.044 3
128.047 32
129.049 8
130.062 116
131.063 11
132.043 60
133.061 395
134.063 15
144.043 4
145.049 999
146.055 61
147.065 10
160.075 869
161.078 30

Name: Betaine-Aldehyde
Synon: trimethyl-(2-oxoethyl)azanium
DB#: MSBNK-IPB_Halle-PB001483
InChIKey: SXKNCCSPZDCRFD-UHFFFAOYSA-N
InChI: InChI=1S/C5H12NO/c1-6(2,3)4-5-7/h5H,4H2,1-3H3/q+1
SMILES: C[N+](C)(C)CC=O
Precursor_type: [M]+
Spectrum_type: MS2
Instrument_type: LC-ESI-QQ
Instrument: TSQ 7000
Ion_mode: POSITIVE
Collision_energy: 20 eV
Formula: [C5H12NO]+
MW: 102
ExactMass: 102.09189
Comments: Parent=-1
Splash: splash10-0pb9-9400000000-f6a6158eae2887c8c1b6
Num Peaks: 20
42.000 4
43.000 9
44.000 3
56.000 0
57.000 0
58.000 311
59.000 999
60.000 3
61.000 48
70.000 0
71.000 0
72.000 4
73.000 7
74.000 0
84.000 8
87.000 23
88.000 0
101.000 0
102.000 704
103.000 0

Name: Sinapine
Synon: 2-[(E)-3-(4-hydroxy-3,5-dimethoxyphenyl)prop-2-enoyl]oxyethyl-trimethylazanium
DB#: MSBNK-IPB_Halle-PB006004
InChIKey: HUJXHFRXWWGYQH-UHFFFAOYSA-O
InChI: InChI=1S/C16H23NO5/c1-17(2,3)8-9-22-15(18)7-6-12-10-13(20-4)16(19)14(11-12)21-5/h6-7,10-11H,8-9H2,1-5H3/p+1
SMILES: C[N+](C)(C)CCOC(=O)C=CC1=CC(=C(C(=C1)OC)O)OC
Precursor_type: [M]+
Spectrum_type: MS2
PrecursorMZ: 310.16545
Instrument_type: LC-ESI-QTOF
Instrument: micrOTOF-Q
Ion_mode: POSITIVE
Collision_energy: 10 eV
Formula: [C16H24NO5]+
MW: 310
ExactMass: 310.16545
Comments: Parent=310.16545
Splash: splash10-0udi-0092000000-57b6d7af206f0f8438e3
Num Peaks: 9
175.036 0
207.060 1
250.879 0
251.087 999
252.091 102
253.094 1
310.160 318
311.163 44
312.163 0

Name: Kaempferol
Synon: 3,5,7-trihydroxy-2-(4-hydroxyphenyl)chromen-4-one
DB#: MSBNK-IPB_Halle-PB000167
InChIKey: IYRMWMYZSQPJKC-UHFFFAOYSA-N
InChI: InChI=1S/C15H10O6/c16-8-3-1-7(2-4-8)15-14(20)13(19)12-10(18)5-9(17)6-11(12)21-15/h1-6,16-18,20H
SMILES: C1=CC(=CC=C1C2=C(C(=O)C3=C(C=C(C=C3O2)O)O)O)O
Precursor_type: [M+H]+
Spectrum_type: MS2
Instrument_type: LC-ESI-QTOF
Instrument: API QSTAR Pulsar i
Ion_mode: POSITIVE
Collision_energy: 55 eV
Formula: C15H10O6
MW: 286
ExactMass: 286.04774
Comments: Parent=-1
Splash: splash10-0v4i-2900000000-3974877b8590facbb784
Num Peaks: 84
53.036 16
55.015 28
57.067 11
65.037 82
67.017 71
68.996 389
70.062 10
77.037 100
78.045 7
79.054 85
81.033 48
83.013 17
89.036 9
91.052 48
93.034 82
94.041 8
95.047 32
97.028 37
103.053 22
105.039 100
106.043 14
107.049 152
108.023 37
109.027 63
111.043 77
115.053 175
116.058 12
117.065 30
119.051 90
121.030 737
122.034 21
123.042 15
125.023 17
127.049 70
128.060 231
129.064 97
131.049 64
132.053 9
133.029 20
134.032 9
135.046 20
136.014 31
137.022 124
139.054 77
140.059 7
141.069 26
143.049 41
144.055 9
145.061 75
147.044 89
151.042 11
153.018 999
154.022 30
155.059 66
156.060 9
157.066 210
158.066 10
160.053 16
161.055 37
163.041 21
165.020 58
166.030 8
167.051 19
168.059 23
171.047 66
183.041 14
184.055 39
185.063 43
187.041 12
188.051 8
195.050 12
197.058 7
201.058 14
203.037 9
212.053 8
213.059 134
216.044 24
229.052 108
230.056 8
241.052 16
257.053 16
258.048 17
269.043 11
285.041 11

Name: Marchantin J
Synon: OTBAZAYHHTYKFG-UHFFFAOYSA-N
Synon: 8-methoxy-2,15-dioxapentacyclo[22.2.2.13,7.110,14.016,21]triaconta-1(26),3(30),4,6,10(29),11,13,16(21),17,19,24,27-dodecaene-4,5,17,18-tetrol
DB#: MSBNK-IPB_Halle-PB010901
InChIKey: OTBAZAYHHTYKFG-UHFFFAOYSA-N
InChI: InChI=1S/C29H26O7/c1-34-25-14-18-3-2-4-22(13-18)36-29-19(9-12-23(30)28(29)33)8-5-17-6-10-21(11-7-17)35-26-16-20(25)15-24(31)27(26)32/h2-4,6-7,9-13,15-16,25,30-33H,5,8,14H2,1H3
SMILES: COC1CC2=CC(=CC=C2)OC3=C(CCC4=CC=C(C=C4)OC5=C(C(=CC1=C5)O)O)C=CC(=C3O)O
Precursor_type: [M+H]+
Spectrum_type: MS2
PrecursorMZ: 487.1751
Instrument_type: LC-ESI-QTOF
Instrument: Bruker MicrOTOF-Q
Ion_mode: POSITIVE
Collision_energy: 34.0381325
Formula: C29H26O7
MW: 486
ExactMass: 486.168
Comments: Parent=487.1751
Splash: splash10-05i0-0190000000-de67ea561aea33355ac1
Num Peaks: 239
117.07 3
119.05 5
121.07 16
123.04 18
128.06 3
129.07 4
131.05 7
133.03 3
135.04 28
136.05 27
137.06 29
139.04 51
140.04 12
141.06 8
142.08 2
143.09 5
144.06 3
145.07 4
146.07 2
147.04 5
149.06 10
151.04 9
152.05 6
153.06 62
154.06 8
155.04 15
155.09 12
157.06 6
158.07 4
159.08 4
161.06 6
163.04 5
165.06 33
166.07 26
167.08 22
168.06 11
169.06 38
170.07 9
171.08 12
172.09 6
173.06 5
175.04 2
175.08 4
175.14 2
177.08 2
178.08 7
179.09 20
181.07 56
182.07 22
183.08 110
184.08 21
185.1 13
186.06 7
187.08 14
187.16 2
188.09 2
193.07 13
194.08 11
195.08 42
196.05 50
197.06 105
198.07 42
199.08 62
200.08 15
201.09 16
201.16 3
202.09 4
204.09 2
205.08 4
206.07 5
207.08 20
208.08 10
209.07 42
210.07 33
211.08 202
212.08 79
213.08 119
214.07 26
215.07 613
216.07 83
217.08 24
219.08 3
220.08 3
221.06 5
221.08 3
222.07 5
223.08 57
224.08 78
225.09 99
226.07 86
227.07 227
228.08 91
229.09 644
230.09 119
231.09 22
232.1 3
235.08 16
235.17 5
236.08 17
237.09 27
238.09 14
239.08 111
240.08 251
241.09 357
242.08 121
243.07 160
244.08 43
245.08 46
246.09 14
249.09 4
251.07 7
252.08 25
253.09 62
254.09 138
255.1 222
256.08 518
256.96 3
257.08 220
258.09 64
259.1 122
260.1 18
263.09 3
265.09 8
266.1 5
267.1 49
268.1 13
269.08 118
270.09 999
271.1 329
272.1 54
273.11 22
274.11 5
275.16 11
276.08 3
277.18 26
278.18 4
279.1 6
283.1 12
284.1 4
285.11 452
286.12 86
287.11 16
289.12 4
291.12 2
292.1 3
293.12 5
295.09 6
297.1 6
298.09 4
299.1 14
300.08 2
301.12 5
302.1 8
303.11 6
304.11 6
305.13 5
306.08 2
308.12 2
311.11 7
312.11 5
314.1 7
315.11 11
316.11 8
317.11 25
318.1 7
319.13 4
320.1 7
321.11 7
323.14 2
324.12 2
327.13 2
328.11 3
329.1 7
330.12 6
331.11 5
332.11 7
333.11 33
334.11 15
335.13 162
336.13 47
337.13 4
342.09 3
345.12 10
347.13 19
348.12 10
349.11 18
350.12 4
358.11 4
359.1 4
360.1 11
361.11 62
362.11 25
363.12 31
364.12 5
365.13 5
373.14 2
375.12 9
376.11 3
376.13 6
377.12 10
378.11 5
379.12 85
380.13 18
381.13 25
382.14 4
385.14 3
391.13 3
393.14 11
394.14 9
395.15 2
397.14 6
398.15 2
403.13 2
409.14 5
409.15 3
410.13 2
419.17 2
423.15 3
425.14 9
426.15 2
427.16 5
435.13 3
437.16 7
439.16 6
440.16 3
441.18 7
451.16 9
452.15 5
453.13 6
454.14 8
455.15 6
456.16 3
457.14 3
469.16 60
470.17 21
472.16 13
485.16 29
486.16 18
487.17 26

Name: Kaempferol
Synon: 3,5,7-trihydroxy-2-(4-hydroxyphenyl)chromen-4-one
DB#: MSBNK-IPB_Halle-PB000166
InChIKey: IYRMWMYZSQPJKC-UHFFFAOYSA-N
InChI: InChI=1S/C15H10O6/c16-8-3-1-7(2-4-8)15-14(20)13(19)12-10(18)5-9(17)6-11(12)21-15/h1-6,16-18,20H
SMILES: C1=CC(=CC=C1C2=C(C(=O)C3=C(C=C(C=C3O2)O)O)O)O
Precursor_type: [M+H]+
Spectrum_type: MS2
Instrument_type: LC-ESI-QTOF
Instrument: API QSTAR Pulsar i
Ion_mode: POSITIVE
Collision_energy: 40 eV
Formula: C15H10O6
MW: 286
ExactMass: 286.04774
Comments: Parent=-1
Splash: splash10-0fe0-0940000000-44ac005000d078497e5d
Num Peaks: 66
55.051 7
67.018 6
68.996 44
69.070 21
77.037 6
79.054 14
81.035 6
93.032 15
103.053 8
105.037 46
107.050 71
109.028 46
111.012 111
115.052 20
117.068 15
119.047 19
121.028 598
122.032 14
127.043 21
128.060 16
129.067 33
131.049 9
133.031 73
135.047 34
136.017 15
137.023 179
139.053 11
141.070 24
143.051 10
145.060 53
147.045 123
153.018 999
154.021 23
155.059 14
157.065 131
161.059 41
163.042 9
165.020 330
166.027 16
167.052 9
169.068 13
171.046 66
173.059 11
175.057 22
183.034 56
184.053 12
185.063 97
189.058 22
197.062 20
201.056 10
203.059 33
213.059 267
214.061 12
216.045 17
217.055 12
229.049 58
231.067 115
241.053 142
242.058 16
243.066 19
245.046 15
258.058 187
259.067 70
269.053 21
287.055 822
288.057 41

Name: Biochanin A O-diglucoside malonylated
DB#: MSBNK-IPB_Halle-PN000094
InChI: N/A
SMILES: N/A
Precursor_type: [M-H]-
Spectrum_type: MS2
PrecursorMZ: 649.177
Instrument_type: ESI-TOF
Instrument: micrOTOF-Q
Ion_mode: NEGATIVE
Collision_energy: 25 eV
Formula: C31H34O18
MW: 694
ExactMass: 694.174514248
Comments: Parent=649.177
Splash: splash10-001i-0090000000-e6a9fb8f03e34ab6b75b
Num Peaks: 1
283.059 999

Name: Genistein
Synon: 5,7-dihydroxy-3-(4-hydroxyphenyl)chromen-4-one
DB#: MSBNK-IPB_Halle-PB005712
InChIKey: TZBJGXHYKVUXJN-UHFFFAOYSA-N
InChI: InChI=1S/C15H10O5/c16-9-3-1-8(2-4-9)11-7-20-13-6-10(17)5-12(18)14(13)15(11)19/h1-7,16-18H
SMILES: C1=CC(=CC=C1C2=COC3=CC(=CC(=C3C2=O)O)O)O
Precursor_type: [M+H]+
Spectrum_type: MS2
Instrument_type: LC-ESI-QTOF
Instrument: micrOTOF-Q
Ion_mode: POSITIVE
Collision_energy: 10 eV
Formula: C15H10O5
MW: 270
ExactMass: 270.05282
Comments: Parent=-1
Splash: splash10-00di-0090000000-2c1c9cb6dfc7a092d3a8
Num Peaks: 7
215.066 2
243.061 3
253.045 0
270.848 0
271.055 999
272.058 126
273.061 8

Name: Chrysoeriol O-glucoside malonylated
DB#: MSBNK-IPB_Halle-PN000037
InChI: N/A
SMILES: N/A
Precursor_type: [M-H]-
Spectrum_type: MS2
PrecursorMZ: 547.098
Instrument_type: ESI-TOF
Instrument: micrOTOF-Q
Ion_mode: NEGATIVE
Collision_energy: 25 eV
Formula: C25H24O14
MW: 548
ExactMass: 548.116605448
Comments: Parent=547.098
Splash: splash10-0002-0091000000-0a40aed010cdaeaa8c55
Num Peaks: 3
284.025 169
299.046 999
300.050 130

Name: Harmane
Synon: 1-methyl-9H-pyrido[3,4-b]indole
DB#: MSBNK-IPB_Halle-PB005765
InChIKey: PSFDQSOCUJVVGF-UHFFFAOYSA-N
InChI: InChI=1S/C12H10N2/c1-8-12-10(6-7-13-8)9-4-2-3-5-11(9)14-12/h2-7,14H,1H3
SMILES: CC1=NC=CC2=C1NC3=CC=CC=C23
Precursor_type: [M+H]+
Spectrum_type: MS2
Instrument_type: LC-ESI-QTOF
Instrument: micrOTOF-Q
Ion_mode: POSITIVE
Collision_energy: 10 eV
Formula: C12H10N2
MW: 182
ExactMass: 182.08440
Comments: Parent=-1
Splash: splash10-001i-0900000000-493e054134592fad2cd8
Num Peaks: 7
115.052 0
142.063 0
168.067 0
182.081 1
183.089 999
184.092 97
185.095 0

Name: 1H-indole-3-carboxylic acid
DB#: MSBNK-IPB_Halle-PB000617
InChIKey: KMAKOBLIOCQGJP-UHFFFAOYSA-N
InChI: InChI=1S/C9H7NO2/c11-9(12)7-5-10-8-4-2-1-3-6(7)8/h1-5,10H,(H,11,12)
SMILES: C1=CC=C2C(=C1)C(=CN2)C(=O)O
Precursor_type: [M+H]+
Spectrum_type: MS2
Instrument_type: LC-ESI-QTOF
Instrument: API QSTAR Pulsar i
Ion_mode: POSITIVE
Collision_energy: 35 eV
Formula: C9H7NO2
MW: 161
ExactMass: 161.04768
Comments: Parent=-1
Splash: splash10-014l-9800000000-670cc23cba665a2c274c
Num Peaks: 8
65.039 64
89.042 461
90.045 32
91.058 999
116.051 743
117.060 277
118.067 255
144.047 116

Name: Resveratrol
Synon: 5-[(E)-2-(4-hydroxyphenyl)ethenyl]benzene-1,3-diol
DB#: MSBNK-IPB_Halle-PB002422
InChIKey: LUKBXSAWLPMMSZ-OWOJBTEDSA-N
InChI: InChI=1S/C14H12O3/c15-12-5-3-10(4-6-12)1-2-11-7-13(16)9-14(17)8-11/h1-9,15-17H/b2-1+
SMILES: C1=CC(=CC=C1/C=C/C2=CC(=CC(=C2)O)O)O
Precursor_type: [M-H]-
Spectrum_type: MS2
Instrument_type: LC-ESI-QTOF
Instrument: API QSTAR Pulsar i
Ion_mode: NEGATIVE
Collision_energy: 25 eV
Formula: C14H12O3
MW: 228
ExactMass: 228.07864
Comments: Parent=-1
Splash: splash10-004r-0970000000-f8c7ca07f27bfc1b8bda
Num Peaks: 17
107.048 7
114.986 12
117.032 10
119.048 19
130.981 9
141.071 36
143.050 260
145.029 16
157.066 53
159.082 96
181.064 29
182.071 43
183.078 123
184.053 9
185.057 517
225.057 18
227.071 999

Name: Formononetin
Synon: 7-hydroxy-3-(4-methoxyphenyl)chromen-4-one
DB#: MSBNK-IPB_Halle-PB000902
InChIKey: HKQYGTCOTHHOMP-UHFFFAOYSA-N
InChI: InChI=1S/C16H12O4/c1-19-12-5-2-10(3-6-12)14-9-20-15-8-11(17)4-7-13(15)16(14)18/h2-9,17H,1H3
SMILES: COC1=CC=C(C=C1)C2=COC3=C(C2=O)C=CC(=C3)O
Precursor_type: [M+H]+
Spectrum_type: MS2
Instrument_type: LC-ESI-QTOF
Instrument: API QSTAR Pulsar i
Ion_mode: POSITIVE
Collision_energy: 15 eV
Formula: C16H12O4
MW: 268
ExactMass: 268.07356
Comments: Parent=-1
Splash: splash10-014i-0090000000-30cc267828b1cb2a0168
Num Peaks: 2
269.081 999
270.096 13

Name: Luteolin 4'-O-glucoside
Synon: 4',5,7-TetrahydroxyFLAVone-4'-GLUCOSide
Synon: Luteolin-4'-O-glucoside
Synon: 3',4',5,7-TetrahydroxyFLAVone-4'-GLUCOSide
DB#: MSBNK-IPB_Halle-PN000061
InChIKey: UHNXUSWGOJMEFO-QNDFHXLGSA-N
InChI: InChI=1S/C21H20O11/c22-7-16-18(27)19(28)20(29)21(32-16)31-13-2-1-8(3-10(13)24)14-6-12(26)17-11(25)4-9(23)5-15(17)30-14/h1-6,16,18-25,27-29H,7H2/t16-,18-,19+,20-,21-/m1/s1
SMILES: C1=CC(=C(C=C1C2=CC(=O)C3=C(C=C(C=C3O2)O)O)O)O[C@H]4[C@@H]([C@H]([C@@H]([C@H](O4)CO)O)O)O
Precursor_type: [M-H]-
Spectrum_type: MS2
PrecursorMZ: 447.093
Instrument_type: ESI-TOF
Instrument: micrOTOF-Q
Ion_mode: NEGATIVE
Collision_energy: 25 eV
Formula: C21H20O11
MW: 448
ExactMass: 448.10056146
Comments: Parent=447.093
Splash: splash10-03di-0030900000-5ff80f584049812dd369
Num Peaks: 4
285.041 520
412.828 999
413.815 241
414.817 242

Name: 4-Hydroxybenzoylcholine
Synon: 2-(4-hydroxybenzoyl)oxyethyl-trimethylazanium
DB#: MSBNK-IPB_Halle-PB000308
InChIKey: BAPAICNRGIBFJT-UHFFFAOYSA-O
InChI: InChI=1S/C12H17NO3/c1-13(2,3)8-9-16-12(15)10-4-6-11(14)7-5-10/h4-7H,8-9H2,1-3H3/p+1
SMILES: C[N+](C)(C)CCOC(=O)C1=CC=C(C=C1)O
Precursor_type: [M]+
Spectrum_type: MS2
Instrument_type: LC-ESI-QTOF
Instrument: API QSTAR Pulsar i
Ion_mode: POSITIVE
Collision_energy: 40 eV
Formula: [C12H18NO3]+
MW: 224
ExactMass: 224.12867
Comments: Parent=-1
Splash: splash10-00di-0900000000-3c8dce9d9b88dcc4be6f
Num Peaks: 4
65.038 21
93.033 46
121.030 999
165.055 114

Name: Kaempferol
Synon: 3,5,7-trihydroxy-2-(4-hydroxyphenyl)chromen-4-one
DB#: MSBNK-IPB_Halle-PB004123
InChIKey: IYRMWMYZSQPJKC-UHFFFAOYSA-N
InChI: InChI=1S/C15H10O6/c16-8-3-1-7(2-4-8)15-14(20)13(19)12-10(18)5-9(17)6-11(12)21-15/h1-6,16-18,20H
SMILES: C1=CC(=CC=C1C2=C(C(=O)C3=C(C=C(C=C3O2)O)O)O)O
Precursor_type: [M+H]+
Spectrum_type: MS2
Instrument_type: LC-ESI-QQ
Instrument: TSQ QUANTUM AM
Ion_mode: POSITIVE
Collision_energy: 35 eV
Formula: C15H10O6
MW: 286
ExactMass: 286.04774
Comments: Parent=-1
Splash: splash10-0udi-1920000000-12a295288f1d670f87fc
Num Peaks: 135
43.000 2
53.000 1
55.000 0
57.000 0
65.000 26
66.000 2
67.000 18
69.000 134
71.000 1
77.000 57
79.000 36
81.000 23
83.000 2
85.000 3
89.000 2
91.000 15
93.000 104
94.000 3
95.000 8
97.000 15
99.000 1
101.000 1
102.000 0
103.000 21
105.000 64
106.000 1
107.000 99
108.000 8
109.000 71
110.000 1
111.000 62
113.000 0
115.000 43
117.000 14
119.000 27
120.000 0
121.000 418
122.000 0
123.000 7
124.000 0
125.000 7
126.000 0
127.000 45
128.000 61
129.000 50
131.000 11
133.000 42
134.000 2
135.000 24
136.000 21
137.000 168
138.000 0
139.000 32
140.000 1
141.000 33
143.000 24
144.000 1
145.000 75
146.000 1
147.000 126
148.000 1
149.000 3
150.000 3
151.000 8
153.000 999
155.000 10
157.000 191
158.000 0
159.000 2
160.000 17
161.000 48
163.000 18
165.000 246
166.000 5
167.000 17
168.000 10
169.000 7
171.000 108
172.000 1
173.000 8
174.000 2
175.000 22
179.000 6
180.000 1
181.000 3
182.000 0
183.000 18
184.000 23
185.000 119
187.000 3
188.000 3
189.000 8
190.000 0
191.000 3
193.000 1
194.000 3
195.000 13
196.000 1
197.000 13
199.000 5
200.000 0
201.000 20
202.000 8
203.000 26
211.000 1
212.000 7
213.000 313
214.000 0
215.000 5
216.000 28
217.000 3
218.000 5
219.000 3
223.000 2
225.000 2
227.000 0
229.000 106
230.000 11
231.000 38
232.000 0
235.000 1
240.000 2
241.000 78
242.000 8
243.000 9
244.000 1
245.000 8
257.000 1
258.000 147
259.000 36
263.000 0
269.000 16
285.000 6
286.000 0
287.000 240

Name: Serotonin
Synon: 3-(2-aminoethyl)-1H-indol-5-ol
DB#: MSBNK-IPB_Halle-PB001418
InChIKey: QZAYGJVTTNCVMB-UHFFFAOYSA-N
InChI: InChI=1S/C10H12N2O/c11-4-3-7-6-12-10-2-1-8(13)5-9(7)10/h1-2,5-6,12-13H,3-4,11H2
SMILES: C1=CC2=C(C=C1O)C(=CN2)CCN
Precursor_type: [M+H]+
Spectrum_type: MS2
Instrument_type: LC-ESI-QTOF
Instrument: API QSTAR Pulsar i
Ion_mode: POSITIVE
Collision_energy: 25 eV
Formula: C10H12N2O
MW: 176
ExactMass: 176.09496
Comments: Parent=-1
Splash: splash10-03yi-0900000000-858936972fd87c0c0b14
Num Peaks: 31
56.942 13
67.040 63
72.937 10
74.951 10
77.034 5
79.052 13
85.945 8
91.053 17
94.040 11
96.939 26
103.053 10
105.070 130
107.049 10
114.946 10
115.054 447
115.980 6
116.050 17
117.058 259
130.067 42
131.066 78
131.973 16
132.083 447
133.065 165
140.051 10
141.057 8
142.065 183
143.072 117
144.048 20
145.052 14
159.069 147
160.076 999

Name: Glutamic acid
Synon: 2-aminopentanedioic acid
DB#: MSBNK-IPB_Halle-PB000463
InChIKey: WHUUTDBJXJRKMK-UHFFFAOYSA-N
InChI: InChI=1S/C5H9NO4/c6-3(5(9)10)1-2-4(7)8/h3H,1-2,6H2,(H,7,8)(H,9,10)
SMILES: C(CC(=O)O)C(C(=O)O)N
Precursor_type: [M+H]+
Spectrum_type: MS2
Instrument_type: LC-ESI-QTOF
Instrument: API QSTAR Pulsar i
Ion_mode: POSITIVE
Collision_energy: 20 eV
Formula: C5H9NO4
MW: 147
ExactMass: 147.05316
Comments: Parent=-1
Splash: splash10-001i-9300000000-f36781f2872f0c748fcf
Num Peaks: 6
56.049 29
84.044 999
85.028 25
102.056 287
130.049 144
148.061 32

Name: Resveratrol
Synon: 5-[(E)-2-(4-hydroxyphenyl)ethenyl]benzene-1,3-diol
DB#: MSBNK-IPB_Halle-PB002424
InChIKey: LUKBXSAWLPMMSZ-OWOJBTEDSA-N
InChI: InChI=1S/C14H12O3/c15-12-5-3-10(4-6-12)1-2-11-7-13(16)9-14(17)8-11/h1-9,15-17H/b2-1+
SMILES: C1=CC(=CC=C1/C=C/C2=CC(=CC(=C2)O)O)O
Precursor_type: [M-H]-
Spectrum_type: MS2
Instrument_type: LC-ESI-QTOF
Instrument: API QSTAR Pulsar i
Ion_mode: NEGATIVE
Collision_energy: 55 eV
Formula: C14H12O3
MW: 228
ExactMass: 228.07864
Comments: Parent=-1
Splash: splash10-014l-0900000000-c856c7fa9653868e5785
Num Peaks: 24
64.999 10
65.035 24
89.035 9
93.031 133
114.045 12
115.053 821
116.024 27
117.032 460
119.048 195
129.069 7
130.039 6
139.054 20
141.034 43
142.041 18
143.050 999
152.065 8
156.059 29
157.066 26
167.050 39
169.065 18
180.056 70
181.063 31
182.069 10
183.042 24

Name: 4-methoxy-1H-indole-3-carbaldehyde
DB#: MSBNK-IPB_Halle-PB000527
InChIKey: GDVCEQRAPMIJBG-UHFFFAOYSA-N
InChI: InChI=1S/C10H9NO2/c1-13-9-4-2-3-8-10(9)7(6-12)5-11-8/h2-6,11H,1H3
SMILES: COC1=CC=CC2=C1C(=CN2)C=O
Precursor_type: [M+H]+
Spectrum_type: MS2
PrecursorMZ: 176.07115
Instrument_type: LC-ESI-QTOF
Instrument: API QSTAR Pulsar i
Ion_mode: POSITIVE
Collision_energy: 15 eV
Formula: C10H9NO2
MW: 175
ExactMass: 175.06333
Comments: Parent=176.07115
Splash: splash10-004i-0900000000-a562d100439166f6b4f5
Num Peaks: 3
148.075 68
161.047 56
176.070 999

Name: Resveratrol
Synon: 5-[(E)-2-(4-hydroxyphenyl)ethenyl]benzene-1,3-diol
DB#: MSBNK-IPB_Halle-PB006261
InChIKey: LUKBXSAWLPMMSZ-OWOJBTEDSA-N
InChI: InChI=1S/C14H12O3/c15-12-5-3-10(4-6-12)1-2-11-7-13(16)9-14(17)8-11/h1-9,15-17H/b2-1+
SMILES: C1=CC(=CC=C1/C=C/C2=CC(=CC(=C2)O)O)O
Precursor_type: [M+H]+
Spectrum_type: MS2
Instrument_type: LC-ESI-QTOF
Instrument: micrOTOF-Q
Ion_mode: POSITIVE
Collision_energy: 10 eV
Formula: C14H12O3
MW: 228
ExactMass: 228.07864
Comments: Parent=-1
Splash: splash10-004i-0290000000-9742e3e8991c1c0c270d
Num Peaks: 47
107.047 0
119.048 12
120.057 1
121.027 2
123.044 1
135.043 184
136.049 14
141.069 3
145.065 8
153.072 1
155.084 2
157.065 2
159.079 7
160.052 0
161.094 1
163.940 1
165.067 14
166.071 1
169.064 1
171.042 2
173.093 0
181.060 0
181.953 0
182.071 0
183.079 39
184.081 2
185.062 0
187.072 7
193.063 13
194.071 1
199.073 0
201.090 9
210.066 3
211.073 76
212.079 7
213.055 1
214.060 2
227.068 6
228.075 26
228.890 0
228.919 0
229.083 999
229.344 0
229.417 0
229.988 0
230.087 111
231.088 5

Name: Rutin
Synon: 2-(3,4-dihydroxyphenyl)-5,7-dihydroxy-3-[(2S,3R,4S,5S,6R)-3,4,5-trihydroxy-6-[[(2R,3R,4R,5R,6S)-3,4,5-trihydroxy-6-methyloxan-2-yl]oxymethyl]oxan-2-yl]oxychromen-4-one
DB#: MSBNK-IPB_Halle-PB006202
InChIKey: IKGXIBQEEMLURG-NVPNHPEKSA-N
InChI: InChI=1S/C27H30O16/c1-8-17(32)20(35)22(37)26(40-8)39-7-15-18(33)21(36)23(38)27(42-15)43-25-19(34)16-13(31)5-10(28)6-14(16)41-24(25)9-2-3-11(29)12(30)4-9/h2-6,8,15,17-18,20-23,26-33,35-38H,7H2,1H3/t8-,15+,17-,18+,20+,21-,22+,23+,26+,27-/m0/s1
SMILES: C[C@H]1[C@@H]([C@H]([C@H]([C@@H](O1)OC[C@@H]2[C@H]([C@@H]([C@H]([C@@H](O2)OC3=C(OC4=CC(=CC(=C4C3=O)O)O)C5=CC(=C(C=C5)O)O)O)O)O)O)O)O
Precursor_type: [M+H]+
Spectrum_type: MS2
Instrument_type: LC-ESI-QTOF
Instrument: micrOTOF-Q
Ion_mode: POSITIVE
Collision_energy: 15 eV
Formula: C27H30O16
MW: 610
ExactMass: 610.15338
Comments: Parent=-1
Splash: splash10-0udi-0009000000-a790b0597ebf4b0f07f0
Num Peaks: 13
129.054 1
147.064 0
255.084 0
302.808 0
303.047 999
303.482 0
304.050 108
305.052 4
449.103 1
465.098 97
466.101 16
467.102 0
611.154 0

Name: Kaempferol-7-O-neohesperidoside
DB#: MSBNK-IPB_Halle-PN000125
InChIKey: OHOBPOYHROOXEI-JWMUNMLDSA-N
InChI: InChI=1S/C27H30O15/c1-9-17(32)20(35)22(37)26(38-9)42-25-21(36)18(33)15(8-28)40-27(25)41-24-19(34)16-13(31)6-12(30)7-14(16)39-23(24)10-2-4-11(29)5-3-10/h2-7,9,15,17-18,20-22,25-33,35-37H,8H2,1H3/t9-,15+,17-,18+,20+,21-,22+,25+,26-,27-/m0/s1
SMILES: C[C@H]1[C@@H]([C@H]([C@H]([C@@H](O1)O[C@@H]2[C@H]([C@@H]([C@H](O[C@H]2OC3=C(OC4=CC(=CC(=C4C3=O)O)O)C5=CC=C(C=C5)O)CO)O)O)O)O)O
Precursor_type: [M+H]+
Spectrum_type: MS2
PrecursorMZ: 595.167
Instrument_type: ESI-TOF
Instrument: micrOTOF-Q
Ion_mode: POSITIVE
Collision_energy: 15 eV
Formula: C27H30O15
MW: 594
ExactMass: 594.15847026
Comments: Parent=595.167
Splash: splash10-000i-0090000000-5b668b90858c9be7a3f9
Num Peaks: 6
129.0546 20
287.0538 999
288.0562 120
289.0605 19
449.1085 71
450.1145 17

Name: Tyramine
Synon: 4-(2-aminoethyl)phenol
DB#: MSBNK-IPB_Halle-PB000474
InChIKey: DZGWFCGJZKJUFP-UHFFFAOYSA-N
InChI: InChI=1S/C8H11NO/c9-6-5-7-1-3-8(10)4-2-7/h1-4,10H,5-6,9H2
SMILES: C1=CC(=CC=C1CCN)O
Precursor_type: [M+H]+
Spectrum_type: MS2
Instrument_type: LC-ESI-QTOF
Instrument: API QSTAR Pulsar i
Ion_mode: POSITIVE
Collision_energy: 20 eV
Formula: C8H11NO
MW: 137
ExactMass: 137.08406
Comments: Parent=-1
Splash: splash10-00di-1900000000-443d60e576da797a70d1
Num Peaks: 6
77.039 19
91.054 38
93.070 109
95.049 4
103.054 53
121.065 999

Name: Rutin
Synon: 2-(3,4-dihydroxyphenyl)-5,7-dihydroxy-3-[(2S,3R,4S,5S,6R)-3,4,5-trihydroxy-6-[[(2R,3R,4R,5R,6S)-3,4,5-trihydroxy-6-methyloxan-2-yl]oxymethyl]oxan-2-yl]oxychromen-4-one
DB#: MSBNK-IPB_Halle-PB001343
InChIKey: IKGXIBQEEMLURG-NVPNHPEKSA-N
InChI: InChI=1S/C27H30O16/c1-8-17(32)20(35)22(37)26(40-8)39-7-15-18(33)21(36)23(38)27(42-15)43-25-19(34)16-13(31)5-10(28)6-14(16)41-24(25)9-2-3-11(29)12(30)4-9/h2-6,8,15,17-18,20-23,26-33,35-38H,7H2,1H3/t8-,15+,17-,18+,20+,21-,22+,23+,26+,27-/m0/s1
SMILES: C[C@H]1[C@@H]([C@H]([C@H]([C@@H](O1)OC[C@@H]2[C@H]([C@@H]([C@H]([C@@H](O2)OC3=C(OC4=CC(=CC(=C4C3=O)O)O)C5=CC(=C(C=C5)O)O)O)O)O)O)O)O
Precursor_type: [M+H]+
Spectrum_type: MS2
Instrument_type: LC-ESI-QTOF
Instrument: API QSTAR Pulsar i
Ion_mode: POSITIVE
Collision_energy: 40 eV
Formula: C27H30O16
MW: 610
ExactMass: 610.15338
Comments: Parent=-1
Splash: splash10-0udi-0009000000-c8c1fc25375ea6875243
Num Peaks: 2
129.052 12
303.049 999

Name: Biochanin A glucosylglucoside dimalonylated
DB#: MSBNK-IPB_Halle-PN000098
InChI: N/A
SMILES: N/A
Precursor_type: [M-H]-
Spectrum_type: MS2
PrecursorMZ: 779.508
Instrument_type: ESI-TOF
Instrument: micrOTOF-Q
Ion_mode: NEGATIVE
Collision_energy: 25 eV
Formula: C34H36O21
MW: 780
ExactMass: 780.174908172
Comments: Parent=779.508
Splash: splash10-001i-0090003000-40457d7c9b74ff8f7ea3
Num Peaks: 22
283.061 999
284.065 95
285.071 16
325.072 11
469.117 9
487.125 36
488.131 7
531.151 6
571.138 7
589.159 26
590.154 9
607.170 33
608.177 12
631.172 14
632.178 6
649.177 164
650.185 44
651.197 20
691.190 34
692.196 8
693.201 60
694.211 14

Name: Isoleucine
Synon: 2-amino-3-methylpentanoic acid
DB#: MSBNK-IPB_Halle-PB000398
InChIKey: AGPKZVBTJJNPAG-UHFFFAOYSA-N
InChI: InChI=1S/C6H13NO2/c1-3-4(2)5(7)6(8)9/h4-5H,3,7H2,1-2H3,(H,8,9)
SMILES: CCC(C)C(C(=O)O)N
Precursor_type: [M+H]+
Spectrum_type: MS2
Instrument_type: LC-ESI-QTOF
Instrument: API QSTAR Pulsar i
Ion_mode: POSITIVE
Collision_energy: 40 eV
Formula: C6H13NO2
MW: 131
ExactMass: 131.09463
Comments: Parent=-1
Splash: splash10-0a4l-9000000000-fe2b891ad2e6f480f0e0
Num Peaks: 19
39.023 138
41.040 524
42.036 32
43.054 27
44.052 999
45.035 185
53.042 15
55.057 76
56.052 572
57.060 875
58.067 140
59.051 23
62.933 8
67.057 30
69.073 533
70.068 45
71.074 29
73.067 15
86.099 212

Name: Quercetin
Synon: 2-(3,4-dihydroxyphenyl)-3,5,7-trihydroxychromen-4-one
DB#: MSBNK-IPB_Halle-PB002411
InChIKey: REFJWTPEDVJJIY-UHFFFAOYSA-N
InChI: InChI=1S/C15H10O7/c16-7-4-10(19)12-11(5-7)22-15(14(21)13(12)20)6-1-2-8(17)9(18)3-6/h1-5,16-19,21H
SMILES: C1=CC(=C(C=C1C2=C(C(=O)C3=C(C=C(C=C3O2)O)O)O)O)O
Precursor_type: [M-H]-
Spectrum_type: MS2
Instrument_type: LC-ESI-QTOF
Instrument: API QSTAR Pulsar i
Ion_mode: NEGATIVE
Collision_energy: 40 eV
Formula: C15H10O7
MW: 302
ExactMass: 302.04265
Comments: Parent=-1
Splash: splash10-0zmi-1900000000-9b0554a80fe8e8b94408
Num Peaks: 48
63.024 122
65.003 162
83.012 117
93.034 91
95.014 11
96.022 10
107.016 653
108.024 36
109.031 80
120.022 9
121.029 519
124.016 22
125.024 17
133.030 9
135.042 14
136.017 12
139.042 70
145.032 13
147.042 14
148.019 13
149.025 94
151.004 999
152.012 16
159.047 32
161.027 45
163.023 81
164.014 63
169.013 43
173.058 11
175.038 20
177.055 12
178.997 102
183.045 19
185.057 11
187.038 31
193.010 21
199.035 13
201.051 34
203.031 16
205.046 13
211.038 30
227.037 42
229.051 25
243.035 30
245.050 44
255.032 18
273.043 12
301.040 19

Name: Phlorizin
Synon: 1-[2,4-dihydroxy-6-[(2S,3R,4S,5S,6R)-3,4,5-trihydroxy-6-(hydroxymethyl)oxan-2-yl]oxyphenyl]-3-(4-hydroxyphenyl)propan-1-one
DB#: MSBNK-IPB_Halle-PB006209
InChIKey: IOUVKUPGCMBWBT-QNDFHXLGSA-N
InChI: InChI=1S/C21H24O10/c22-9-16-18(27)19(28)20(29)21(31-16)30-15-8-12(24)7-14(26)17(15)13(25)6-3-10-1-4-11(23)5-2-10/h1-2,4-5,7-8,16,18-24,26-29H,3,6,9H2/t16-,18-,19+,20-,21-/m1/s1
SMILES: C1=CC(=CC=C1CCC(=O)C2=C(C=C(C=C2O[C@H]3[C@@H]([C@H]([C@@H]([C@H](O3)CO)O)O)O)O)O)O
Precursor_type: [M+H]+
Spectrum_type: MS2
Instrument_type: LC-ESI-QTOF
Instrument: micrOTOF-Q
Ion_mode: POSITIVE
Collision_energy: 20 eV
Formula: C21H24O10
MW: 436
ExactMass: 436.13695
Comments: Parent=-1
Splash: splash10-00or-0593000000-dd46ab71f853e528f809
Num Peaks: 196
107.048 45
108.044 0
114.698 0
121.065 12
121.703 1
123.038 1
127.037 43
131.046 26
131.064 0
132.050 2
139.037 6
145.053 14
145.080 0
149.058 157
150.059 11
151.038 30
152.047 2
152.616 2
153.012 0
153.047 1
155.028 0
157.071 1
159.079 3
161.076 1
162.055 1
166.030 2
168.734 1
169.048 708
169.461 0
170.051 35
170.101 1
173.057 57
173.129 0
174.055 0
174.073 1
175.036 0
179.066 1
181.047 34
187.071 6
191.065 37
192.070 3
193.048 73
194.052 6
197.055 4
199.076 3
199.959 0
203.068 1
205.044 10
206.047 0
207.060 8
209.041 1
210.141 0
211.058 96
211.167 0
212.029 1
212.059 7
213.064 0
215.067 97
215.189 0
216.069 6
217.049 9
218.095 0
219.058 3
219.595 1
221.071 1
223.048 5
227.072 7
229.039 5
231.059 1
232.737 1
233.075 81
233.172 1
234.082 14
235.057 177
236.063 29
239.070 6
241.053 6
242.048 0
245.037 8
245.122 0
247.057 73
247.114 1
248.062 14
249.071 0
249.490 2
251.087 1
256.072 2
257.076 44
257.164 0
258.084 6
258.127 0
259.056 67
259.158 1
260.065 6
263.044 1
265.068 5
269.085 7
269.151 1
271.099 2
275.087 999
275.195 10
275.241 1
275.276 1
275.756 1
276.090 150
277.069 57
277.130 0
278.069 4
278.917 0
279.054 1
281.011 0
281.079 21
281.111 1
281.144 0
282.033 0
282.082 3
285.064 0
285.133 0
286.992 1
287.087 152
287.215 1
288.094 17
288.206 0
294.099 0
295.080 19
295.137 0
296.098 0
299.087 87
300.090 7
301.080 3
304.085 1
307.212 2
309.060 0
310.108 0
311.093 15
312.094 2
313.090 5
315.080 0
315.554 0
317.098 139
317.869 0
318.101 15
319.086 3
322.172 1
323.088 12
324.099 3
325.127 1
327.114 1
333.100 1
335.087 25
336.097 3
336.176 0
337.080 3
338.114 0
341.097 108
342.101 9
347.084 4
353.097 233
354.106 35
354.242 2
355.113 3
358.089 0
364.977 0
365.098 85
365.149 0
365.189 0
365.312 0
366.095 10
366.144 1
371.107 3
371.186 1
383.110 30
383.215 0
384.120 3
385.127 0
390.233 41
390.317 2
391.225 1
392.217 2
398.732 0
401.119 1
401.185 1
408.242 19
409.226 20
409.278 1
411.220 1
436.236 63
436.292 1
436.390 0
437.240 22
437.356 2
438.236 0
475.907 0
477.094 0
643.817 0
810.368 1

Name: Emetine
Synon: (2S,3R,11bS)-2-[[(1R)-6,7-dimethoxy-1,2,3,4-tetrahydroisoquinolin-1-yl]methyl]-3-ethyl-9,10-dimethoxy-2,3,4,6,7,11b-hexahydro-1H-pyrido[2,1-a]isoquinoline
DB#: MSBNK-IPB_Halle-PB005909
InChIKey: AUVVAXYIELKVAI-CKBKHPSWSA-N
InChI: InChI=1S/C29H40N2O4/c1-6-18-17-31-10-8-20-14-27(33-3)29(35-5)16-23(20)25(31)12-21(18)11-24-22-15-28(34-4)26(32-2)13-19(22)7-9-30-24/h13-16,18,21,24-25,30H,6-12,17H2,1-5H3/t18-,21-,24+,25-/m0/s1
SMILES: CC[C@H]1CN2CCC3=CC(=C(C=C3[C@@H]2C[C@@H]1C[C@@H]4C5=CC(=C(C=C5CCN4)OC)OC)OC)OC
Precursor_type: [M+H]+
Spectrum_type: MS2
Instrument_type: LC-ESI-QTOF
Instrument: micrOTOF-Q
Ion_mode: POSITIVE
Collision_energy: 10 eV
Formula: C29H40N2O4
MW: 480
ExactMass: 480.29881
Comments: Parent=-1
Splash: splash10-001i-0000900000-68867585331a5fc55eed
Num Peaks: 13
246.146 1
274.176 0
464.272 0
479.291 0
480.297 1
480.836 0
480.959 0
481.300 999
481.689 0
481.783 0
482.112 0
482.303 213
483.307 7

Name: Resveratrol
Synon: 5-[(E)-2-(4-hydroxyphenyl)ethenyl]benzene-1,3-diol
DB#: MSBNK-IPB_Halle-PB000643
InChIKey: LUKBXSAWLPMMSZ-OWOJBTEDSA-N
InChI: InChI=1S/C14H12O3/c15-12-5-3-10(4-6-12)1-2-11-7-13(16)9-14(17)8-11/h1-9,15-17H/b2-1+
SMILES: C1=CC(=CC=C1/C=C/C2=CC(=CC(=C2)O)O)O
Precursor_type: [M+H]+
Spectrum_type: MS2
Instrument_type: LC-ESI-QTOF
Instrument: API QSTAR Pulsar i
Ion_mode: POSITIVE
Collision_energy: 40 eV
Formula: C14H12O3
MW: 228
ExactMass: 228.07864
Comments: Parent=-1
Splash: splash10-0aou-3900000000-bb14be278509155e8ce6
Num Peaks: 52
43.017 16
55.018 54
65.037 86
67.053 20
68.996 113
71.011 11
77.037 218
79.052 141
81.032 47
91.053 576
92.059 24
93.033 12
95.049 67
105.049 33
107.049 999
108.053 32
109.028 28
110.036 10
111.044 12
115.054 76
117.069 12
119.050 74
120.058 153
121.029 75
123.043 34
127.052 20
128.060 40
129.069 45
131.050 30
135.044 61
136.052 48
139.051 19
141.066 76
144.052 35
145.060 53
152.058 56
153.066 152
154.074 51
155.080 87
157.063 21
164.061 52
165.069 532
166.074 42
168.056 47
169.065 12
181.066 98
182.074 44
183.081 30
193.071 15
194.074 13
210.072 19
211.081 11

Name: Phloretin
Synon: 3-(4-hydroxyphenyl)-1-(2,4,6-trihydroxyphenyl)propan-1-one
DB#: MSBNK-IPB_Halle-PB000682
InChIKey: VGEREEWJJVICBM-UHFFFAOYSA-N
InChI: InChI=1S/C15H14O5/c16-10-4-1-9(2-5-10)3-6-12(18)15-13(19)7-11(17)8-14(15)20/h1-2,4-5,7-8,16-17,19-20H,3,6H2
SMILES: C1=CC(=CC=C1CCC(=O)C2=C(C=C(C=C2O)O)O)O
Precursor_type: [M+H]+
Spectrum_type: MS2
Instrument_type: LC-ESI-QTOF
Instrument: API QSTAR Pulsar i
Ion_mode: POSITIVE
Collision_energy: 25 eV
Formula: C15H14O5
MW: 274
ExactMass: 274.08412
Comments: Parent=-1
Splash: splash10-0a4i-0900000000-f6a73eb3753eaa9c13ac
Num Peaks: 4
107.049 999
108.052 22
151.037 12
169.051 180

Name: Resveratrol
Synon: 5-[(E)-2-(4-hydroxyphenyl)ethenyl]benzene-1,3-diol
DB#: MSBNK-IPB_Halle-PB006263
InChIKey: LUKBXSAWLPMMSZ-OWOJBTEDSA-N
InChI: InChI=1S/C14H12O3/c15-12-5-3-10(4-6-12)1-2-11-7-13(16)9-14(17)8-11/h1-9,15-17H/b2-1+
SMILES: C1=CC(=CC=C1/C=C/C2=CC(=CC(=C2)O)O)O
Precursor_type: [M+H]+
Spectrum_type: MS2
Instrument_type: LC-ESI-QTOF
Instrument: micrOTOF-Q
Ion_mode: POSITIVE
Collision_energy: 20 eV
Formula: C14H12O3
MW: 228
ExactMass: 228.07864
Comments: Parent=-1
Splash: splash10-014i-0910000000-2cac03dc9e9b045fdf23
Num Peaks: 175
103.223 0
105.067 0
107.048 27
108.050 0
110.032 0
115.054 36
116.075 0
117.031 0
117.065 8
117.078 0
117.934 0
119.048 41
120.036 0
120.057 119
121.029 66
121.063 4
122.027 1
123.044 53
124.010 0
124.055 1
126.042 0
126.787 0
127.053 14
128.061 17
129.068 30
129.116 0
130.076 7
131.048 27
131.087 18
131.927 0
132.055 8
132.086 3
133.065 8
134.036 0
134.065 2
134.436 0
135.043 360
136.050 169
137.020 5
137.042 0
137.057 10
139.055 14
139.729 0
140.058 4
141.069 140
142.072 11
143.064 0
144.055 40
144.111 2
145.064 100
145.079 0
145.096 2
145.923 0
146.074 8
146.923 0
146.956 0
147.045 26
147.651 0
148.049 0
150.065 0
151.057 4
152.061 42
152.918 0
153.069 224
154.075 76
155.084 207
155.122 0
156.088 14
156.741 0
156.948 0
157.064 65
158.073 28
159.078 51
159.097 1
160.052 27
161.023 0
161.060 22
163.050 6
163.582 0
163.934 0
163.980 0
164.065 9
164.925 0
164.971 0
165.069 999
165.150 3
165.186 2
165.210 0
165.248 0
165.748 0
166.071 145
167.067 5
168.054 93
168.986 0
169.063 44
170.070 6
171.044 12
171.077 5
172.044 4
172.086 3
173.061 31
173.091 0
174.056 0
174.090 1
175.045 0
176.064 0
177.951 0
179.047 0
181.063 135
182.071 96
182.140 1
183.079 269
184.083 46
184.105 0
185.059 12
185.132 0
186.066 20
187.071 27
188.081 1
188.101 1
192.055 6
192.463 0
193.064 101
194.068 51
194.139 0
195.074 14
196.047 9
197.057 20
197.093 0
198.062 8
199.074 60
200.079 9
201.086 20
202.092 0
209.055 13
210.065 97
210.096 0
210.152 1
210.869 0
211.074 196
211.149 0
211.281 0
211.314 0
212.080 70
212.164 0
213.055 33
214.060 29
215.069 0
219.049 0
226.057 2
227.068 42
227.092 0
227.170 0
228.075 48
228.141 0
229.083 63
230.086 7
230.930 0
231.093 2
240.057 0
241.572 0
252.355 0
256.936 0
263.904 0
276.579 0
290.046 0
313.102 0
357.678 0
370.852 0
385.850 0
424.196 0
491.078 0
535.609 0
565.663 1
573.603 0

Name: 3-Formylindole
Synon: 1H-indole-3-carbaldehyde
DB#: MSBNK-IPB_Halle-PB000508
InChIKey: OLNJUISKUQQNIM-UHFFFAOYSA-N
InChI: InChI=1S/C9H7NO/c11-6-7-5-10-9-4-2-1-3-8(7)9/h1-6,10H
SMILES: C1=CC=C2C(=C1)C(=CN2)C=O
Precursor_type: [M+H]+
Spectrum_type: MS2
Instrument_type: LC-ESI-QTOF
Instrument: API QSTAR Pulsar i
Ion_mode: POSITIVE
Collision_energy: 35 eV
Formula: C9H7NO
MW: 145
ExactMass: 145.05276
Comments: Parent=-1
Splash: splash10-00kf-9400000000-74dbc81ab5e686655977
Num Peaks: 8
65.040 52
89.041 4
90.047 29
91.056 999
116.052 2
117.059 266
118.069 260
145.049 2

Name: Kaempferol-3-O-glucoside
Synon: Astragalin, trifolin
DB#: MSBNK-IPB_Halle-PN000124
InChIKey: JPUKWEQWGBDDQB-QSOFNFLRSA-N
InChI: InChI=1S/C21H20O11/c22-7-13-15(26)17(28)18(29)21(31-13)32-20-16(27)14-11(25)5-10(24)6-12(14)30-19(20)8-1-3-9(23)4-2-8/h1-6,13,15,17-18,21-26,28-29H,7H2/t13-,15-,17+,18-,21+/m1/s1
SMILES: C1=CC(=CC=C1C2=C(C(=O)C3=C(C=C(C=C3O2)O)O)O[C@H]4[C@@H]([C@H]([C@@H]([C@H](O4)CO)O)O)O)O
Precursor_type: [M-H]-
Spectrum_type: MS2
PrecursorMZ: 447.085
Instrument_type: ESI-TOF
Instrument: micrOTOF-Q
Ion_mode: NEGATIVE
Collision_energy: 25 eV
Formula: C21H20O11
MW: 448
ExactMass: 448.10056146
Comments: Parent=447.085
Splash: splash10-001i-0090000000-080f497a38accc845305
Num Peaks: 14
151.004 10
227.033 99
228.037 13
229.045 12
255.028 222
256.032 81
257.042 13
284.029 999
285.034 309
286.040 34
327.046 7
447.086 118
448.087 20
449.091 5

Name: Tryptophan
Synon: 2-amino-3-(1H-indol-3-yl)propanoic acid
DB#: MSBNK-IPB_Halle-PB000417
InChIKey: QIVBCDIJIAJPQS-UHFFFAOYSA-N
InChI: InChI=1S/C11H12N2O2/c12-9(11(14)15)5-7-6-13-10-4-2-1-3-8(7)10/h1-4,6,9,13H,5,12H2,(H,14,15)
SMILES: C1=CC=C2C(=C1)C(=CN2)CC(C(=O)O)N
Precursor_type: [M+H]+
Spectrum_type: MS2
Instrument_type: LC-ESI-QTOF
Instrument: API QSTAR Pulsar i
Ion_mode: POSITIVE
Collision_energy: 40 eV
Formula: C11H12N2O2
MW: 204
ExactMass: 204.08988
Comments: Parent=-1
Splash: splash10-014i-0900000000-1c32b0f03d6d382e25e9
Num Peaks: 30
65.039 8
74.024 16
89.037 7
90.045 3
91.055 192
93.035 7
103.057 16
105.072 14
115.054 327
116.058 57
117.060 291
118.066 999
119.069 19
121.031 17
127.053 27
128.052 21
130.066 138
131.072 13
132.081 147
140.050 10
141.058 4
142.066 126
143.075 309
144.081 100
145.067 9
146.062 126
149.025 9
155.061 10
159.093 14
170.061 30

Name: S,R-Noscapine
Synon: (3S)-6,7-dimethoxy-3-[(5R)-4-methoxy-6-methyl-7,8-dihydro-5H-[1,3]dioxolo[4,5-g]isoquinolin-5-yl]-3H-2-benzofuran-1-one
DB#: MSBNK-IPB_Halle-PB005908
InChIKey: AKNNEGZIBPJZJG-MSOLQXFVSA-N
InChI: InChI=1S/C22H23NO7/c1-23-8-7-11-9-14-20(29-10-28-14)21(27-4)15(11)17(23)18-12-5-6-13(25-2)19(26-3)16(12)22(24)30-18/h5-6,9,17-18H,7-8,10H2,1-4H3/t17-,18+/m1/s1
SMILES: CN1CCC2=CC3=C(C(=C2[C@@H]1[C@@H]4C5=C(C(=C(C=C5)OC)OC)C(=O)O4)OC)OCO3
Precursor_type: [M+H]+
Spectrum_type: MS2
Instrument_type: LC-ESI-QTOF
Instrument: micrOTOF-Q
Ion_mode: POSITIVE
Collision_energy: 30 eV
Formula: C22H23NO7
MW: 413
ExactMass: 413.14745
Comments: Parent=-1
Splash: splash10-00di-0097000000-7bc66b03e96232b267fc
Num Peaks: 166
121.064 2
148.067 0
149.059 2
161.056 0
162.086 0
163.042 0
164.045 0
165.053 5
174.048 0
175.063 1
176.055 0
177.055 2
178.069 0
179.068 33
180.071 2
188.052 1
189.056 3
190.077 1
191.064 6
192.069 0
193.048 7
194.059 0
202.072 0
203.057 4
204.063 16
205.071 164
206.078 105
207.080 11
208.086 0
209.074 1
216.060 0
217.058 2
218.077 27
219.085 30
219.921 0
220.094 999
221.097 110
222.083 3
223.072 3
224.078 3
225.085 0
231.076 1
232.058 0
233.058 4
234.064 9
235.072 11
236.077 6
237.064 6
238.077 2
239.072 0
239.096 2
240.074 0
241.083 0
245.055 1
246.064 6
247.071 8
248.084 17
249.071 12
250.063 7
251.068 13
252.074 16
253.081 6
254.091 3
255.077 0
258.062 0
259.069 0
260.061 1
261.055 6
262.059 20
263.066 35
264.074 31
265.070 22
266.086 9
267.092 17
268.086 2
269.108 4
270.092 0
273.053 0
274.059 12
275.065 16
276.074 17
277.076 26
278.068 9
279.065 27
280.069 95
281.076 33
282.083 11
283.078 2
285.100 1
287.067 0
288.072 1
289.051 5
290.055 13
291.062 30
292.070 42
293.073 39
294.083 20
295.090 125
296.095 28
297.094 10
298.080 2
299.083 0
302.053 12
303.060 11
304.069 17
305.075 40
306.054 42
307.061 80
308.066 49
309.072 41
310.079 62
311.082 12
312.093 17
313.099 8
314.092 0
316.076 0
317.048 2
318.060 1
319.056 27
320.066 23
321.072 34
322.080 95
323.086 252
324.092 70
325.102 97
326.105 17
327.111 6
328.110 1
332.064 16
333.071 7
334.079 55
335.070 30
336.079 10
337.072 30
338.077 72
339.083 12
340.092 4
341.095 3
343.111 0
347.096 0
348.083 3
349.084 6
350.075 89
351.078 22
352.097 31
353.097 267
354.101 48
355.111 8
356.105 1
362.096 2
363.105 5
364.108 3
365.097 36
366.094 46
367.099 9
368.090 2
371.108 0
378.130 1
380.107 2
381.116 20
382.121 3
383.110 3
384.106 0
396.137 2
399.129 0
414.149 3

Name: 2'-Hydroxygenistein
Synon: 2'-Hydroxy-genistein
Synon: 5,7,2',4'-Tetrahydroxyisoflavone
DB#: MSBNK-IPB_Halle-PN000005
InChIKey: GSSOWCUOWLMMRJ-UHFFFAOYSA-N
InChI: InChI=1S/C15H10O6/c16-7-1-2-9(11(18)3-7)10-6-21-13-5-8(17)4-12(19)14(13)15(10)20/h1-6,16-19H
SMILES: OC1=CC=C(C(O)=C1)C2=COC3=CC(O)=CC(O)=C3(C2(=O))
Precursor_type: [M-H]-
Spectrum_type: MS2
PrecursorMZ: 285.04
Instrument_type: ESI-TOF
Instrument: micrOTOF-Q
Ion_mode: NEGATIVE
Collision_energy: 25 eV
Formula: C15H10O6
MW: 286
ExactMass: 286.04773803999996
Comments: Parent=285.04
Splash: splash10-001i-0900000000-eb1c908e2b7ab5532501
Num Peaks: 35
89.035 50
107.016 52
109.023 39
121.033 50
123.039 84
131.047 51
132.019 77
133.028 999
134.030 81
143.048 44
145.036 62
146.039 27
147.032 74
148.019 106
149.024 253
151.020 60
157.034 66
171.047 90
172.047 32
173.038 67
174.036 34
175.039 258
176.037 34
185.051 45
187.038 53
189.053 29
195.045 43
198.031 64
199.038 108
201.017 62
211.040 35
215.031 43
217.053 45
229.048 36
240.045 39

Name: 2'-Hydroxygenistein 8-C-glucoside
Synon: 2'-Hydroxygenistein-8-C-glucoside
DB#: MSBNK-IPB_Halle-PN000013
InChIKey: HXZMIYTWLNHLCX-CFVFPOCXSA-N
InChI: InChI=1S/C21H20O11/c22-5-13-17(28)18(29)19(30)21(32-13)15-12(26)4-11(25)14-16(27)9(6-31-20(14)15)8-2-1-7(23)3-10(8)24/h1-4,6,13,17-19,21-26,28-30H,5H2/t13-,17-,18+,19-,21?/m1/s1
SMILES: C1=CC(=C(C=C1O)O)C2=COC3=C(C2=O)C(=CC(=C3C4[C@@H]([C@H]([C@@H]([C@H](O4)CO)O)O)O)O)O
Precursor_type: [M-H]-
Spectrum_type: MS2
PrecursorMZ: 447.097
Instrument_type: ESI-TOF
Instrument: micrOTOF-Q
Ion_mode: NEGATIVE
Collision_energy: 25 eV
Formula: C21H20O11
MW: 448
ExactMass: 448.10056146
Comments: Parent=447.097
Splash: splash10-004i-0029000000-883c90aca60b9d6963df
Num Peaks: 13
284.0341 35
285.0447 83
297.0398 160
298.0444 54
299.0524 139
327.0510 999
328.0564 157
329.0515 28
339.0540 51
357.0629 388
358.0656 88
359.0672 30
369.0602 53

Name: Luteolin O-glucoside malonylated
DB#: MSBNK-IPB_Halle-PN000064
InChI: N/A
SMILES: N/A
Precursor_type: [M+H]+
Spectrum_type: MS2
PrecursorMZ: 535.112
Instrument_type: ESI-TOF
Instrument: micrOTOF-Q
Ion_mode: POSITIVE
Collision_energy: 15 eV
Formula: C24H22O14
MW: 534
ExactMass: 534.100955384
Comments: Parent=535.112
Splash: splash10-000i-0090010000-c3cb846b854503d037e3
Num Peaks: 12
127.0441 3
287.0544 999
288.0581 108
289.0616 15
449.1083 13
450.1135 3
491.1232 5
492.1277 3
517.0998 3
535.1100 189
536.1120 34
537.1191 9

Name: Tetrahydropapaveroline
Synon: 1-[(3,4-dihydroxyphenyl)methyl]-1,2,3,4-tetrahydroisoquinoline-6,7-diol
DB#: MSBNK-IPB_Halle-PB005926
InChIKey: ABXZOXDTHTTZJW-UHFFFAOYSA-N
InChI: InChI=1S/C16H17NO4/c18-13-2-1-9(6-14(13)19)5-12-11-8-16(21)15(20)7-10(11)3-4-17-12/h1-2,6-8,12,17-21H,3-5H2
SMILES: C1CNC(C2=CC(=C(C=C21)O)O)CC3=CC(=C(C=C3)O)O
Precursor_type: [M+H]+
Spectrum_type: MS2
Instrument_type: LC-ESI-QTOF
Instrument: micrOTOF-Q
Ion_mode: POSITIVE
Collision_energy: 30 eV
Formula: C16H17NO4
MW: 287
ExactMass: 287.11576
Comments: Parent=-1
Splash: splash10-03k9-0920000000-0fea3d6de92f4642847e
Num Peaks: 132
115.052 272
116.054 26
117.044 0
117.065 1
118.061 6
119.046 9
121.065 2
123.042 924
124.046 51
125.051 0
128.059 0
130.038 0
131.047 17
133.063 30
134.062 2
135.040 4
136.050 7
137.058 110
138.061 6
141.070 1
142.042 0
142.073 0
143.047 582
144.052 78
145.060 6
146.057 13
147.043 51
148.042 9
149.046 105
149.066 1
150.057 4
151.053 1
152.061 9
153.066 9
154.075 2
155.050 0
155.084 5
160.051 19
160.998 0
161.057 206
162.064 37
163.043 0
163.065 4
164.068 999
165.071 92
167.081 5
167.167 0
168.054 6
169.063 6
169.098 3
170.107 0
173.054 2
176.060 4
177.068 9
178.076 114
179.082 216
180.085 20
181.063 17
182.038 0
182.070 14
183.076 4
184.049 0
184.070 0
186.067 0
187.069 0
189.065 34
190.072 6
192.053 6
193.058 2
195.078 9
196.047 0
197.059 18
197.079 6
198.060 4
199.068 2
200.085 0
205.060 15
206.070 15
207.077 188
207.155 0
208.081 33
208.246 0
209.057 3
209.103 0
210.065 217
210.151 1
211.069 45
212.067 0
212.091 0
213.056 20
213.088 4
214.056 6
214.108 0
217.058 9
217.702 0
218.065 6
220.053 8
221.054 15
222.070 0
223.070 18
224.077 11
225.087 131
226.056 1
226.086 17
227.066 6
228.072 5
232.983 0
234.065 14
235.072 66
236.078 23
237.052 9
238.060 53
239.066 37
240.074 2
241.039 2
242.054 55
243.057 7
249.059 0
251.066 2
252.076 0
253.081 39
254.083 5
254.156 0
255.063 12
255.120 0
256.069 88
256.143 0
257.070 8
263.904 0
264.917 0
270.416 0
271.079 1

Name: Indole-3-acetyl-L-valine
Synon: (2S)-2-[[2-(1H-indol-3-yl)acetyl]amino]-3-methylbutanoic acid
DB#: MSBNK-IPB_Halle-PB000553
InChIKey: AZEGJHGXTSUPPG-AWEZNQCLSA-N
InChI: InChI=1S/C15H18N2O3/c1-9(2)14(15(19)20)17-13(18)7-10-8-16-12-6-4-3-5-11(10)12/h3-6,8-9,14,16H,7H2,1-2H3,(H,17,18)(H,19,20)/t14-/m0/s1
SMILES: CC(C)[C@@H](C(=O)O)NC(=O)CC1=CNC2=CC=CC=C21
Precursor_type: [M+H]+
Spectrum_type: MS2
Instrument_type: LC-ESI-QTOF
Instrument: API QSTAR Pulsar i
Ion_mode: POSITIVE
Collision_energy: 40 eV
Formula: C15H18N2O3
MW: 274
ExactMass: 274.13174
Comments: Parent=-1
Splash: splash10-001i-3900000000-2dcdac483e04b6e4aa9b
Num Peaks: 6
55.055 13
72.081 382
118.087 4
130.064 999
130.129 5
131.067 10

Name: Naringenin
Synon: 5,7-dihydroxy-2-(4-hydroxyphenyl)chroman-4-one
DB#: MSBNK-IPB_Halle-PB002403
InChIKey: FTVWIRXFELQLPI-ZDUSSCGKSA-N
InChI: InChI=1S/C15H12O5/c16-9-3-1-8(2-4-9)13-7-12(19)15-11(18)5-10(17)6-14(15)20-13/h1-6,13,16-18H,7H2/t13-/m0/s1
SMILES: C1[C@H](OC2=CC(=CC(=C2C1=O)O)O)C3=CC=C(C=C3)O
Precursor_type: [M-H]-
Spectrum_type: MS2
Instrument_type: LC-ESI-QTOF
Instrument: API QSTAR Pulsar i
Ion_mode: NEGATIVE
Collision_energy: 40 eV
Formula: C15H12O5
MW: 272
ExactMass: 272.06847
Comments: Parent=-1
Splash: splash10-014i-2900000000-4b44af7541ec3e49a2fa
Num Peaks: 17
63.025 150
65.004 185
83.013 98
93.034 72
107.016 315
108.024 11
117.036 22
119.050 999
121.029 13
143.052 27
145.031 26
151.004 210
161.062 30
165.020 19
177.017 30
185.058 17
187.037 60

Name: Oxycodone
Synon: Morphinan-6-one, 4,5alpha-epoxy-14-hydroxy-3-methoxy-17-methyl-
DB#: MSBNK-IPB_Halle-PB002102
InChIKey: BRUQQQPBMZOVGD-UHFFFAOYSA-N
InChI: InChI=1S/C18H21NO4/c1-19-8-7-17-14-10-3-4-12(22-2)15(14)23-16(17)11(20)5-6-18(17,21)13(19)9-10/h3-4,13,16,21H,5-9H2,1-2H3
SMILES: CN1CCC23C4C(=O)CCC2(C1CC5=C3C(=C(C=C5)OC)O4)O
Precursor_type: [M+H]+
Spectrum_type: MS2
Instrument_type: LC-ESI-QQ
Instrument: TSQ 7000
Ion_mode: POSITIVE
Collision_energy: 30 eV
Formula: C18H21NO4
MW: 315
ExactMass: 315.14706
Comments: Parent=-1
Splash: splash10-0002-0190000000-6d398e73211fa44ec844
Num Peaks: 121
32.000 0
42.000 0
43.000 0
44.000 3
45.000 2
55.000 0
58.000 16
59.000 5
70.000 83
71.000 7
82.000 0
84.000 0
91.000 3
92.000 0
94.000 5
95.000 2
108.000 11
109.000 0
110.000 2
122.000 0
131.000 2
133.000 1
137.000 1
141.000 0
143.000 0
145.000 0
151.000 1
153.000 0
154.000 0
157.000 4
159.000 2
160.000 4
161.000 10
162.000 0
164.000 0
165.000 1
166.000 0
167.000 0
169.000 0
170.000 0
174.000 2
175.000 26
176.000 4
177.000 0
181.000 23
182.000 3
185.000 2
186.000 1
187.000 111
188.000 16
189.000 6
190.000 1
193.000 2
195.000 4
196.000 8
197.000 12
198.000 5
199.000 19
200.000 0
201.000 6
202.000 7
203.000 6
205.000 0
207.000 2
208.000 0
209.000 5
210.000 4
211.000 1
212.000 5
213.000 40
214.000 13
215.000 4
216.000 2
217.000 2
219.000 0
221.000 5
223.000 3
224.000 35
225.000 35
226.000 5
227.000 17
228.000 15
229.000 17
230.000 0
234.000 0
235.000 1
237.000 2
238.000 1
239.000 10
240.000 11
241.000 317
242.000 18
243.000 2
248.000 1
249.000 5
250.000 0
252.000 15
253.000 0
254.000 4
255.000 13
256.000 292
257.000 24
258.000 0
265.000 5
266.000 12
267.000 5
268.000 7
269.000 7
270.000 34
273.000 0
280.000 13
281.000 2
282.000 5
283.000 13
284.000 1
297.000 1
298.000 999
299.000 41
301.000 0
316.000 153
317.000 18

Name: Luteone 4',7-O-diglucoside
DB#: MSBNK-IPB_Halle-PN000020
InChIKey: JVOLPASYNIPHBV-HCSHWHRSSA-N
InChI: InChI=1S/C32H38O16/c1-12(2)3-5-15-18(46-32-30(43)28(41)26(39)21(10-34)48-32)8-19-22(23(15)36)24(37)16(11-44-19)14-6-4-13(7-17(14)35)45-31-29(42)27(40)25(38)20(9-33)47-31/h3-4,6-8,11,20-21,25-36,38-43H,5,9-10H2,1-2H3/t20-,21-,25-,26-,27+,28+,29-,30-,31-,32-/m1/s1
SMILES: C1=CC(=CC(=C1C3=COC2=CC(=C(C(=C2C3=O)O)CC=C(C)C)O[C@H]4[C@@H]([C@H]([C@@H]([C@H](O4)CO)O)O)O)O)O[C@H]5[C@@H]([C@H]([C@@H]([C@H](O5)CO)O)O)O
Precursor_type: [M+H]+
Spectrum_type: MS2
PrecursorMZ: 679.228
Instrument_type: ESI-TOF
Instrument: micrOTOF-Q
Ion_mode: POSITIVE
Collision_energy: 15 eV
Formula: C32H38O16
MW: 678
ExactMass: 678.215985136
Comments: Parent=679.228
Splash: splash10-02t9-0001590000-f93a5e0e687354b505a9
Num Peaks: 9
299.0529 50
355.1181 147
356.1271 34
461.1065 667
462.1163 173
517.1738 999
518.1735 301
519.1674 55
679.2215 67

Name: Glutamic acid
Synon: 2-aminopentanedioic acid
DB#: MSBNK-IPB_Halle-PB000464
InChIKey: WHUUTDBJXJRKMK-UHFFFAOYSA-N
InChI: InChI=1S/C5H9NO4/c6-3(5(9)10)1-2-4(7)8/h3H,1-2,6H2,(H,7,8)(H,9,10)
SMILES: C(CC(=O)O)C(C(=O)O)N
Precursor_type: [M+H]+
Spectrum_type: MS2
Instrument_type: LC-ESI-QTOF
Instrument: API QSTAR Pulsar i
Ion_mode: POSITIVE
Collision_energy: 30 eV
Formula: C5H9NO4
MW: 147
ExactMass: 147.05316
Comments: Parent=-1
Splash: splash10-001i-9000000000-f8b643434e08f4b8477a
Num Peaks: 5
41.038 36
56.049 269
84.044 999
85.028 31
102.056 32

Name: Luteone O-glucoside
DB#: MSBNK-IPB_Halle-PN000100
InChI: N/A
SMILES: N/A
Precursor_type: [M+H]+
Spectrum_type: MS2
PrecursorMZ: 517.174
Instrument_type: ESI-TOF
Instrument: micrOTOF-Q
Ion_mode: POSITIVE
Collision_energy: 15 eV
Formula: C26H28O11
MW: 516
ExactMass: 516.163161716
Comments: Parent=517.174
Splash: splash10-0aos-0069060000-a758cf52e4b5f5321a5c
Num Peaks: 7
299.0561 964
300.0539 165
355.1200 999
356.1211 220
517.1766 711
518.1777 206
519.1771 65

Name: 5-Hydroxyindole-3-acetic acid
Synon: 2-(5-hydroxy-1H-indol-3-yl)acetic acid
DB#: MSBNK-IPB_Halle-PB001384
InChIKey: DUUGKQCEGZLZNO-UHFFFAOYSA-N
InChI: InChI=1S/C10H9NO3/c12-7-1-2-9-8(4-7)6(5-11-9)3-10(13)14/h1-2,4-5,11-12H,3H2,(H,13,14)
SMILES: C1=CC2=C(C=C1O)C(=CN2)CC(=O)O
Precursor_type: [M+H]+
Spectrum_type: MS2
Instrument_type: LC-ESI-QTOF
Instrument: API QSTAR Pulsar i
Ion_mode: POSITIVE
Collision_energy: 55 eV
Formula: C10H9NO3
MW: 191
ExactMass: 191.05824
Comments: Parent=-1
Splash: splash10-014l-9400000000-e3bed6bf3a283d372f93
Num Peaks: 46
39.027 5
41.037 17
43.054 3
51.024 22
52.022 4
53.011 4
55.021 8
56.068 1
59.049 1
63.027 12
65.038 701
66.038 16
67.044 4
70.968 4
72.927 7
75.022 77
77.038 104
78.044 52
79.042 11
89.039 54
90.045 64
91.056 999
92.057 35
92.081 5
93.050 6
95.056 19
96.054 9
101.043 36
102.046 29
103.047 5
104.054 47
105.049 28
106.042 7
116.050 54
117.059 407
118.066 189
119.026 3
119.052 73
120.049 11
128.052 64
129.049 27
130.042 10
133.056 10
144.054 4
145.052 9
146.060 180

Name: Xanthotoxin
Synon: 9-methoxyfuro[3,2-g]chromen-7-one
DB#: MSBNK-IPB_Halle-PB006164
InChIKey: QXKHYNVANLEOEG-UHFFFAOYSA-N
InChI: InChI=1S/C12H8O4/c1-14-12-10-8(4-5-15-10)6-7-2-3-9(13)16-11(7)12/h2-6H,1H3
SMILES: COC1=C2C(=CC3=C1OC=C3)C=CC(=O)O2
Precursor_type: [M+H]+
Spectrum_type: MS2
Instrument_type: LC-ESI-QTOF
Instrument: micrOTOF-Q
Ion_mode: POSITIVE
Collision_energy: 20 eV
Formula: C12H8O4
MW: 216
ExactMass: 216.04226
Comments: Parent=-1
Splash: splash10-0uk9-0970000000-59c3b8004baa44f8d3a5
Num Peaks: 40
115.053 14
116.058 1
117.067 1
118.041 18
119.043 0
129.032 7
130.040 6
131.048 37
132.052 3
133.063 4
143.048 4
144.055 1
145.028 23
146.035 81
147.039 6
157.027 29
158.035 27
159.040 2
161.058 354
162.061 32
163.064 0
171.042 1
172.049 0
173.056 19
174.029 673
175.033 59
176.035 1
185.021 57
186.026 6
189.053 60
190.056 5
201.017 1
201.886 0
202.024 999
202.332 0
203.027 106
204.029 5
217.047 206
218.050 23
219.054 0

Name: Citrulline
Synon: 2-amino-5-(carbamoylamino)pentanoic acid
DB#: MSBNK-IPB_Halle-PB000431
InChIKey: RHGKLRLOHDJJDR-UHFFFAOYSA-N
InChI: InChI=1S/C6H13N3O3/c7-4(5(10)11)2-1-3-9-6(8)12/h4H,1-3,7H2,(H,10,11)(H3,8,9,12)
SMILES: C(CC(C(=O)O)N)CNC(=O)N
Precursor_type: [M+H]+
Spectrum_type: MS2
Instrument_type: LC-ESI-QTOF
Instrument: API QSTAR Pulsar i
Ion_mode: POSITIVE
Collision_energy: 10 eV
Formula: C6H13N3O3
MW: 175
ExactMass: 175.09569
Comments: Parent=-1
Splash: splash10-056r-0900000000-4a5fc0dfc372dbdce3da
Num Peaks: 7
113.071 3
115.089 2
130.097 5
133.096 5
158.094 5
159.078 514
176.102 999

Name: Aspartic acid
Synon: 2-aminobutanedioic acid
DB#: MSBNK-IPB_Halle-PB000452
InChIKey: CKLJMWTZIZZHCS-UHFFFAOYSA-N
InChI: InChI=1S/C4H7NO4/c5-2(4(8)9)1-3(6)7/h2H,1,5H2,(H,6,7)(H,8,9)
SMILES: C(C(C(=O)O)N)C(=O)O
Precursor_type: [M+H]+
Spectrum_type: MS2
Instrument_type: LC-ESI-QTOF
Instrument: API QSTAR Pulsar i
Ion_mode: POSITIVE
Collision_energy: 10 eV
Formula: C4H7NO4
MW: 133
ExactMass: 133.03751
Comments: Parent=-1
Splash: splash10-001i-1900000000-7e4e3f8ab0f046237116
Num Peaks: 4
74.023 52
88.037 238
116.034 318
134.043 999

Name: 3-Formylindole
Synon: 1H-indole-3-carbaldehyde
DB#: MSBNK-IPB_Halle-PB000509
InChIKey: OLNJUISKUQQNIM-UHFFFAOYSA-N
InChI: InChI=1S/C9H7NO/c11-6-7-5-10-9-4-2-1-3-8(7)9/h1-6,10H
SMILES: C1=CC=C2C(=C1)C(=CN2)C=O
Precursor_type: [M+H]+
Spectrum_type: MS2
Instrument_type: LC-ESI-QTOF
Instrument: API QSTAR Pulsar i
Ion_mode: POSITIVE
Collision_energy: 45 eV
Formula: C9H7NO
MW: 145
ExactMass: 145.05276
Comments: Parent=-1
Splash: splash10-00kf-9100000000-22b52274e9bec85c9488
Num Peaks: 14
39.024 3
41.039 4
51.024 7
63.023 12
64.031 3
65.040 374
77.038 1
78.036 3
89.041 95
90.048 195
91.056 999
116.052 6
117.060 264
118.069 38

Name: 3-Acetylindole
Synon: 1-(1H-indol-3-yl)ethanone
DB#: MSBNK-IPB_Halle-PB000499
InChIKey: VUIMBZIZZFSQEE-UHFFFAOYSA-N
InChI: InChI=1S/C10H9NO/c1-7(12)9-6-11-10-5-3-2-4-8(9)10/h2-6,11H,1H3
SMILES: CC(=O)C1=CNC2=CC=CC=C21
Precursor_type: [M+H]+
Spectrum_type: MS2
Instrument_type: LC-ESI-QTOF
Instrument: API QSTAR Pulsar i
Ion_mode: POSITIVE
Collision_energy: 50 eV
Formula: C10H9NO
MW: 159
ExactMass: 159.06841
Comments: Parent=-1
Splash: splash10-0006-9000000000-991d9cd176478f62e26a
Num Peaks: 12
43.019 999
51.022 0
63.025 1
65.041 50
77.039 1
89.039 27
90.048 35
91.056 257
115.055 2
116.050 0
117.060 57
118.069 27

Name: Luteone O-glucoside
DB#: MSBNK-IPB_Halle-PN000102
InChI: N/A
SMILES: N/A
Precursor_type: [M+H]+
Spectrum_type: MS2
PrecursorMZ: 517.174
Instrument_type: ESI-TOF
Instrument: micrOTOF-Q
Ion_mode: POSITIVE
Collision_energy: 15 eV
Formula: C26H28O11
MW: 516
ExactMass: 516.163161716
Comments: Parent=517.174
Splash: splash10-0a4i-0009010000-08b6d581991849ef4881
Num Peaks: 4
351.0844 111
355.1180 999
356.1152 187
517.1750 159

Name: Tryptophan
Synon: 2-amino-3-(1H-indol-3-yl)propanoic acid
DB#: MSBNK-IPB_Halle-PB000416
InChIKey: QIVBCDIJIAJPQS-UHFFFAOYSA-N
InChI: InChI=1S/C11H12N2O2/c12-9(11(14)15)5-7-6-13-10-4-2-1-3-8(7)10/h1-4,6,9,13H,5,12H2,(H,14,15)
SMILES: C1=CC=C2C(=C1)C(=CN2)CC(C(=O)O)N
Precursor_type: [M+H]+
Spectrum_type: MS2
Instrument_type: LC-ESI-QTOF
Instrument: API QSTAR Pulsar i
Ion_mode: POSITIVE
Collision_energy: 25 eV
Formula: C11H12N2O2
MW: 204
ExactMass: 204.08988
Comments: Parent=-1
Splash: splash10-0002-0900000000-9f9642c36e9b23a79341
Num Peaks: 24
57.072 11
74.024 7
87.045 6
91.054 6
115.055 15
117.065 26
118.067 256
119.069 2
121.030 7
127.055 3
130.066 26
132.081 95
142.066 32
143.075 37
144.082 197
145.079 6
146.061 999
147.065 17
149.025 75
159.094 99
160.082 13
170.061 75
188.073 293
189.078 6

Name: (8Z)-2,15-dioxapentacyclo[22.2.2.13,7.110,14.016,21]triaconta-3(30),4,6,8,10(29),11,13,16(21),17,19,25,27-dodecaene-4,5,17-triol 1
Synon: 7,8,19,20-Tetrahydro-15,18-etheno-2,6:9,13-dimetheno-1,14-benzodioxacyclodocosin-11,12,24-triol
Synon: (8Z)-2,15-dioxapentacyclo[22.2.2.13,7.110,14.016,21]triaconta-3(30),4,6,8,10(29),11,13,16(21),17,19,25,27-dodecaene-4,5,17-triol
DB#: MSBNK-IPB_Halle-PB011401
InChIKey: AZIYOMYZWLGWRM-FPLPWBNLSA-N
InChI: InChI=1S/C28H24O5/c29-24-6-2-4-21-12-9-18-10-13-22(14-11-18)32-26-17-20(16-25(30)27(26)31)8-7-19-3-1-5-23(15-19)33-28(21)24/h1-8,10-11,13-18,22,29-31H,9,12H2/b8-7-
SMILES: C1CC2=C(C(=CC=C2)O)OC3=CC=CC(=C3)/C=C\C4=CC(=C(C(=C4)O)O)OC5C=CC1C=C5
Precursor_type: [M+H]+
Spectrum_type: MS2
PrecursorMZ: 441.1697
Instrument_type: LC-ESI-QTOF
Instrument: Bruker MicrOTOF-Q
Ion_mode: POSITIVE
Collision_energy: 30.58772
Formula: C28H24O5
MW: 440
ExactMass: 440.162
Comments: Parent=441.1697
Splash: splash10-01t9-0291000000-8f5b1dce0913b4ab3326
Num Peaks: 203
107.05 2
115.05 6
117.07 10
119.05 13
120.05 8
121.06 55
122.07 4
123.04 40
124.04 5
125.02 4
128.06 3
129.07 7
130.08 5
131.05 10
133.06 19
135.04 44
136.05 25
137.06 58
141.07 6
143.09 5
145.06 19
146.07 5
147.04 4
149.06 15
151.04 8
152.06 9
153.07 15
154.07 7
155.08 17
157.06 13
158.08 3
161.06 4
162.07 3
163.04 4
165.07 78
166.07 32
167.09 52
168.06 17
169.06 36
170.07 13
171.08 20
172.09 3
173.06 5
174.07 2
177.07 14
178.08 22
179.09 36
180.09 5
181.07 168
182.07 50
183.08 240
184.08 37
185.1 43
186.09 7
187.08 14
188.08 2
189.07 2
191.09 16
192.09 6
193.09 51
194.08 58
195.08 155
196.06 81
197.06 265
198.07 76
199.08 301
200.08 59
201.09 24
202.09 7
203.08 15
204.09 2
205.07 3
206.07 9
207.08 65
208.09 27
209.07 151
210.07 198
211.08 894
211.98 3
212.08 578
212.97 3
213.09 555
214.09 86
215.07 468
216.07 62
217.08 7
219.08 20
220.09 13
221.1 62
222.09 25
223.08 130
224.08 552
225.09 676
226.07 201
227.07 614
228.08 452
229.09 791
230.09 113
231.09 15
232.08 2
234.07 4
235.08 11
236.08 7
237.09 70
238.1 35
239.11 999
239.99 3
240.1 182
241.09 532
242.09 82
243.08 36
244.07 10
245.09 4
246.15 2
247.08 5
249.1 5
252.09 4
253.09 19
254.09 21
255.1 258
256.11 46
257.1 9
258.09 2
259.11 11
260.08 7
261.09 8
262.1 3
263.11 5
265.1 3
266.11 2
267.11 4
268.09 7
269.1 10
270.1 4
271.11 8
272.09 4
273.12 11
274.12 5
275.1 7
277.11 5
281.09 3
283.11 27
284.11 11
285.1 7
286.1 12
287.11 23
288.11 9
289.12 9
290.12 3
291.13 6
293.1 8
296.09 3
297.1 10
298.11 3
299.11 35
300.11 11
301.12 70
302.12 28
303.13 29
304.12 9
305.11 12
306.12 5
307.11 3
309.09 3
311.11 40
312.11 16
313.11 11
314.11 19
315.1 59
316.13 21
317.12 66
318.12 15
319.13 101
320.13 35
321.13 4
322.12 10
323.13 4
328.11 3
329.12 66
330.12 52
331.12 40
332.13 33
333.11 230
334.12 67
335.13 75
336.13 14
337.13 3
345.12 3
346.12 6
347.13 104
348.13 202
349.14 48
350.14 7
395.16 4
396.17 3
411.16 5
413.17 4
421.14 3
423.16 35
424.16 11
439.15 113
440.16 35
441.17 64

Name: Safranin
Synon: 3,7-dimethyl-10-phenylphenazin-10-ium-2,8-diamine
DB#: MSBNK-IPB_Halle-PB005982
InChIKey: WULISCVZERSMML-UHFFFAOYSA-O
InChI: InChI=1S/C20H18N4/c1-12-8-17-19(10-15(12)21)24(14-6-4-3-5-7-14)20-11-16(22)13(2)9-18(20)23-17/h3-11H,1-2H3,(H3,21,22)/p+1
SMILES: CC1=CC2=C(C=C1N)[N+](=C3C=C(C(=CC3=N2)C)N)C4=CC=CC=C4
Precursor_type: [M]+
Spectrum_type: MS2
Instrument_type: LC-ESI-QTOF
Instrument: micrOTOF-Q
Ion_mode: POSITIVE
Collision_energy: 30 eV
Formula: [C20H19N4]+
MW: 315
ExactMass: 315.16097
Comments: Parent=-1
Splash: splash10-014i-0039000000-7cf1ae0020d0c9ea736e
Num Peaks: 54
196.085 0
197.093 3
198.098 0
208.091 0
209.097 0
210.100 10
211.106 6
212.112 3
213.111 0
220.083 0
221.092 1
222.100 3
223.096 16
224.101 1
237.110 22
238.118 107
239.120 13
248.114 0
256.094 1
257.101 1
258.101 0
259.107 0
260.114 2
261.120 0
269.102 0
270.108 0
271.114 1
272.114 3
273.122 19
274.128 9
275.134 1
279.088 0
280.095 5
281.102 4
282.100 4
283.106 8
284.111 9
285.111 4
286.128 4
287.136 8
288.144 17
289.147 1
296.114 1
297.122 21
298.128 40
299.126 115
300.131 61
301.135 7
313.140 11
314.147 22
314.944 0
315.156 999
316.159 177
317.161 1

Name: Quercetin
Synon: 2-(3,4-dihydroxyphenyl)-3,5,7-trihydroxychromen-4-one
DB#: MSBNK-IPB_Halle-PB006205
InChIKey: REFJWTPEDVJJIY-UHFFFAOYSA-N
InChI: InChI=1S/C15H10O7/c16-7-4-10(19)12-11(5-7)22-15(14(21)13(12)20)6-1-2-8(17)9(18)3-6/h1-5,16-19,21H
SMILES: C1=CC(=C(C=C1C2=C(C(=O)C3=C(C=C(C=C3O2)O)O)O)O)O
Precursor_type: [M+H]+
Spectrum_type: MS2
Instrument_type: LC-ESI-QTOF
Instrument: micrOTOF-Q
Ion_mode: POSITIVE
Collision_energy: 15 eV
Formula: C15H10O7
MW: 302
ExactMass: 302.04265
Comments: Parent=-1
Splash: splash10-0udi-0009000000-6db00d86c62d1532dd1f
Num Peaks: 22
137.022 0
153.017 0
165.017 1
201.054 0
229.047 10
230.049 0
247.057 4
257.041 11
258.044 0
274.041 3
275.051 1
285.036 8
286.042 0
302.035 1
302.759 0
302.838 0
302.895 0
303.046 999
303.577 0
303.663 0
304.050 119
305.051 4

Name: Phenylglycine
Synon: 2-amino-2-phenylacetic acid
DB#: MSBNK-IPB_Halle-PB006121
InChIKey: ZGUNAGUHMKGQNY-UHFFFAOYSA-N
InChI: InChI=1S/C8H9NO2/c9-7(8(10)11)6-4-2-1-3-5-6/h1-5,7H,9H2,(H,10,11)
SMILES: C1=CC=C(C=C1)C(C(=O)O)N
Precursor_type: [M+H]+
Spectrum_type: MS2
Instrument_type: LC-ESI-QTOF
Instrument: micrOTOF-Q
Ion_mode: POSITIVE
Collision_energy: 20 eV
Formula: C8H9NO2
MW: 151
ExactMass: 151.06333
Comments: Parent=-1
Splash: splash10-000i-0900000000-04069023db5873b4f33e
Num Peaks: 10
106.070 9
107.046 37
116.971 2
134.946 10
135.042 999
136.047 60
170.960 2
390.349 1
412.169 2
536.829 1

Name: Benzoylcholine
Synon: 2-(benzoyloxy)ethyl-trimethylazanium
DB#: MSBNK-IPB_Halle-PB000313
InChIKey: HOPVGFKDVOOCHD-UHFFFAOYSA-N
InChI: InChI=1S/C12H18NO2/c1-13(2,3)9-10-15-12(14)11-7-5-4-6-8-11/h4-8H,9-10H2,1-3H3/q+1
SMILES: C[N+](C)(C)CCOC(=O)C1=CC=CC=C1
Precursor_type: [M]+
Spectrum_type: MS2
Instrument_type: LC-ESI-QTOF
Instrument: API QSTAR Pulsar i
Ion_mode: POSITIVE
Collision_energy: 55 eV
Formula: [C12H18NO2]+
MW: 208
ExactMass: 208.13375
Comments: Parent=-1
Splash: splash10-004i-9300000000-e745ed72902c019b8f21
Num Peaks: 2
77.039 999
105.034 414

Name: Kinetin
Synon: N-(furan-2-ylmethyl)-7H-purin-6-amine
DB#: MSBNK-IPB_Halle-PB000627
InChIKey: QANMHLXAZMSUEX-UHFFFAOYSA-N
InChI: InChI=1S/C10H9N5O/c1-2-7(16-3-1)4-11-9-8-10(13-5-12-8)15-6-14-9/h1-3,5-6H,4H2,(H2,11,12,13,14,15)
SMILES: C1=COC(=C1)CNC2=NC=NC3=C2NC=N3
Precursor_type: [M+H]+
Spectrum_type: MS2
Instrument_type: LC-ESI-QTOF
Instrument: API QSTAR Pulsar i
Ion_mode: POSITIVE
Collision_energy: 15 eV
Formula: C10H9N5O
MW: 215
ExactMass: 215.08071
Comments: Parent=-1
Splash: splash10-014i-1090000000-41ad42056b51b72ce86a
Num Peaks: 4
81.034 113
148.061 93
188.095 7
216.089 999

Name: Kaempferol
Synon: 3,5,7-trihydroxy-2-(4-hydroxyphenyl)chromen-4-one
DB#: MSBNK-IPB_Halle-PB004122
InChIKey: IYRMWMYZSQPJKC-UHFFFAOYSA-N
InChI: InChI=1S/C15H10O6/c16-8-3-1-7(2-4-8)15-14(20)13(19)12-10(18)5-9(17)6-11(12)21-15/h1-6,16-18,20H
SMILES: C1=CC(=CC=C1C2=C(C(=O)C3=C(C=C(C=C3O2)O)O)O)O
Precursor_type: [M+H]+
Spectrum_type: MS2
Instrument_type: LC-ESI-QQ
Instrument: TSQ QUANTUM AM
Ion_mode: POSITIVE
Collision_energy: 30 eV
Formula: C15H10O6
MW: 286
ExactMass: 286.04774
Comments: Parent=-1
Splash: splash10-0f79-0970000000-ca953d330ffd7b6b0f26
Num Peaks: 115
65.000 2
67.000 2
69.000 46
71.000 0
77.000 15
79.000 8
81.000 4
83.000 0
89.000 0
91.000 3
93.000 34
94.000 2
95.000 2
97.000 1
99.000 0
103.000 7
105.000 30
107.000 29
109.000 36
110.000 0
111.000 53
115.000 11
117.000 1
119.000 8
121.000 246
123.000 2
124.000 0
125.000 1
126.000 0
127.000 14
128.000 14
129.000 16
131.000 7
132.000 0
133.000 53
134.000 1
135.000 12
136.000 7
137.000 114
138.000 0
139.000 8
141.000 20
143.000 3
145.000 32
147.000 69
149.000 3
151.000 2
152.000 0
153.000 593
155.000 2
157.000 92
159.000 0
160.000 2
161.000 33
163.000 4
165.000 311
166.000 1
167.000 4
168.000 2
169.000 9
171.000 38
173.000 6
174.000 0
175.000 27
179.000 6
181.000 0
183.000 5
184.000 7
185.000 84
187.000 0
188.000 4
189.000 21
190.000 0
191.000 1
193.000 5
194.000 4
195.000 7
197.000 21
199.000 11
200.000 1
201.000 6
202.000 1
203.000 22
207.000 0
212.000 10
213.000 239
216.000 10
217.000 10
218.000 4
219.000 1
223.000 4
225.000 1
227.000 1
229.000 34
230.000 0
231.000 65
232.000 2
240.000 1
241.000 100
242.000 5
243.000 11
244.000 0
245.000 8
251.000 0
252.000 0
257.000 2
258.000 177
259.000 46
263.000 0
268.000 0
269.000 15
270.000 1
285.000 2
286.000 0
287.000 999

Name: Tyramine
Synon: 4-(2-aminoethyl)phenol
DB#: MSBNK-IPB_Halle-PB000475
InChIKey: DZGWFCGJZKJUFP-UHFFFAOYSA-N
InChI: InChI=1S/C8H11NO/c9-6-5-7-1-3-8(10)4-2-7/h1-4,10H,5-6,9H2
SMILES: C1=CC(=CC=C1CCN)O
Precursor_type: [M+H]+
Spectrum_type: MS2
Instrument_type: LC-ESI-QTOF
Instrument: API QSTAR Pulsar i
Ion_mode: POSITIVE
Collision_energy: 30 eV
Formula: C8H11NO
MW: 137
ExactMass: 137.08406
Comments: Parent=-1
Splash: splash10-0ffx-9500000000-55fc23fe7afe748d1bf1
Num Peaks: 16
51.025 14
53.040 8
55.019 19
65.039 20
77.038 999
78.045 8
79.053 5
91.054 664
93.070 423
94.041 9
95.050 227
102.047 20
103.054 858
105.046 62
119.049 4
121.065 593

Name: 2'-Hydroxygenistein-7-O-glucoside
DB#: MSBNK-IPB_Halle-PN000117
InChIKey: VYYHGKQKCBDQKO-CMWLGVBASA-N
InChI: InChI=1S/C21H20O11/c22-6-15-18(27)19(28)20(29)21(32-15)31-9-4-13(25)16-14(5-9)30-7-11(17(16)26)10-2-1-8(23)3-12(10)24/h1-5,7,15,18-25,27-29H,6H2/t15-,18-,19+,20-,21-/m1/s1
SMILES: C1=CC(=C(C=C1O)O)C2=COC3=CC(=CC(=C3C2=O)O)O[C@H]4[C@@H]([C@H]([C@@H]([C@H](O4)CO)O)O)O
Precursor_type: [M-H]-
Spectrum_type: MS2
PrecursorMZ: 447.096
Instrument_type: ESI-TOF
Instrument: micrOTOF-Q
Ion_mode: NEGATIVE
Collision_energy: 25 eV
Formula: C21H20O11
MW: 448
ExactMass: 448.10056146
Comments: Parent=447.096
Splash: splash10-03ei-0090700000-586db637e5a3bbbabaa4
Num Peaks: 5
284.031 880
285.038 906
412.828 999
413.820 275
414.816 239

Name: Naringin
Synon: (2S)-7-[(2S,3R,4S,5S,6R)-4,5-dihydroxy-6-(hydroxymethyl)-3-[(2S,3R,4R,5R,6S)-3,4,5-trihydroxy-6-methyloxan-2-yl]oxyoxan-2-yl]oxy-5-hydroxy-2-(4-hydroxyphenyl)-2,3-dihydrochromen-4-one
DB#: MSBNK-IPB_Halle-PB005723
InChIKey: DFPMSGMNTNDNHN-ZPHOTFPESA-N
InChI: InChI=1S/C27H32O14/c1-10-20(32)22(34)24(36)26(37-10)41-25-23(35)21(33)18(9-28)40-27(25)38-13-6-14(30)19-15(31)8-16(39-17(19)7-13)11-2-4-12(29)5-3-11/h2-7,10,16,18,20-30,32-36H,8-9H2,1H3/t10-,16-,18+,20-,21+,22+,23-,24+,25+,26-,27+/m0/s1
SMILES: C[C@H]1[C@@H]([C@H]([C@H]([C@@H](O1)O[C@@H]2[C@H]([C@@H]([C@H](O[C@H]2OC3=CC(=C4C(=O)C[C@H](OC4=C3)C5=CC=C(C=C5)O)O)CO)O)O)O)O)O
Precursor_type: [M+H]+
Spectrum_type: MS2
Instrument_type: LC-ESI-QTOF
Instrument: micrOTOF-Q
Ion_mode: POSITIVE
Collision_energy: 15 eV
Formula: C27H32O14
MW: 580
ExactMass: 580.17921
Comments: Parent=-1
Splash: splash10-00di-0090000000-51b9f4ee8566ed0120d5
Num Peaks: 41
129.053 2
147.056 0
153.017 15
171.027 1
179.032 0
195.026 2
219.025 0
231.067 0
245.040 0
255.081 0
261.035 0
263.050 2
272.853 0
273.071 999
274.074 110
275.076 3
281.061 5
285.072 3
297.066 6
299.071 0
315.081 28
316.084 3
339.079 15
340.083 1
351.080 0
365.094 1
369.090 1
381.090 3
383.105 18
384.110 1
399.101 5
400.105 0
401.116 11
402.120 1
407.097 0
417.112 15
418.114 2
419.126 15
420.130 1
435.122 29
436.125 4

Name: IAA-Val , Indole-3-acetyl-L-valine
Synon: (2S)-2-[[2-(1H-indol-3-yl)acetyl]amino]-3-methylbutanoic acid
DB#: MSBNK-IPB_Halle-PB005788
InChIKey: AZEGJHGXTSUPPG-AWEZNQCLSA-N
InChI: InChI=1S/C15H18N2O3/c1-9(2)14(15(19)20)17-13(18)7-10-8-16-12-6-4-3-5-11(10)12/h3-6,8-9,14,16H,7H2,1-2H3,(H,17,18)(H,19,20)/t14-/m0/s1
SMILES: CC(C)[C@@H](C(=O)O)NC(=O)CC1=CNC2=CC=CC=C21
Precursor_type: [M+H]+
Spectrum_type: MS2
Instrument_type: LC-ESI-QTOF
Instrument: micrOTOF-Q
Ion_mode: POSITIVE
Collision_energy: 10 eV
Formula: C15H18N2O3
MW: 274
ExactMass: 274.13174
Comments: Parent=-1
Splash: splash10-0059-0390000000-7cd92897c94397eb647a
Num Peaks: 14
118.084 6
130.063 537
131.066 34
158.059 4
228.912 0
229.130 999
229.989 0
230.133 115
231.136 1
257.124 60
258.126 6
274.133 0
275.134 283
276.137 37

Name: Apigenin C-glucoside malonylated
DB#: MSBNK-IPB_Halle-PN000068
InChI: N/A
SMILES: N/A
Precursor_type: [M+H]+
Spectrum_type: MS2
PrecursorMZ: 519.117
Instrument_type: ESI-TOF
Instrument: micrOTOF-Q
Ion_mode: POSITIVE
Collision_energy: 15 eV
Formula: C24H22O13
MW: 518
ExactMass: 518.106040764
Comments: Parent=519.117
Splash: splash10-014i-0017890000-7c1f3d99d310f3dc90e5
Num Peaks: 43
271.0614 20
283.0610 45
295.0607 124
296.0630 23
313.0714 510
314.0750 60
315.0803 8
337.0714 81
338.0727 13
343.0849 19
351.0875 26
355.0801 12
361.0741 73
362.0788 17
367.0763 16
379.0818 267
380.0867 50
397.0930 183
398.0985 25
415.1045 128
416.1078 25
421.0887 15
433.1135 91
434.1191 14
439.1042 407
440.1106 73
441.1101 18
457.1167 270
458.1214 63
459.1139 10
465.0860 25
466.0934 13
475.1271 107
476.1330 12
483.0984 198
484.1037 49
485.1017 10
501.1051 394
502.1089 85
503.1107 19
519.1160 999
520.1219 162
521.1200 46

Name: Benzoylcholine
Synon: 2-(benzoyloxy)ethyl-trimethylazanium
DB#: MSBNK-IPB_Halle-PB000312
InChIKey: HOPVGFKDVOOCHD-UHFFFAOYSA-N
InChI: InChI=1S/C12H18NO2/c1-13(2,3)9-10-15-12(14)11-7-5-4-6-8-11/h4-8H,9-10H2,1-3H3/q+1
SMILES: C[N+](C)(C)CCOC(=O)C1=CC=CC=C1
Precursor_type: [M]+
Spectrum_type: MS2
Instrument_type: LC-ESI-QTOF
Instrument: API QSTAR Pulsar i
Ion_mode: POSITIVE
Collision_energy: 40 eV
Formula: [C12H18NO2]+
MW: 208
ExactMass: 208.13375
Comments: Parent=-1
Splash: splash10-0a4i-2900000000-e19ab5f30a7537975653
Num Peaks: 3
77.039 296
105.034 999
149.060 119

Name: Protopine
Synon: Bis[1,3]benzodioxolo[4,5-c:5',6'-g]azecin-13(5H)-one, 4,6,7,14-tetrahydro-5-methyl-
DB#: MSBNK-IPB_Halle-PB002121
InChIKey: GPTFURBXHJWNHR-UHFFFAOYSA-N
InChI: InChI=1S/C20H19NO5/c1-21-5-4-13-7-18-19(25-10-24-18)8-14(13)16(22)6-12-2-3-17-20(15(12)9-21)26-11-23-17/h2-3,7-8H,4-6,9-11H2,1H3
SMILES: CN1CCC2=CC3=C(C=C2C(=O)CC4=C(C1)C5=C(C=C4)OCO5)OCO3
Precursor_type: [M+H]+
Spectrum_type: MS2
Instrument_type: LC-ESI-QQ
Instrument: TSQ 7000
Ion_mode: POSITIVE
Collision_energy: 30 eV
Formula: C20H19NO5
MW: 353
ExactMass: 353.12632
Comments: Parent=-1
Splash: splash10-0f79-0936000000-da2afff6dba215da666a
Num Peaks: 105
32.000 1
44.000 30
45.000 5
58.000 5
59.000 0
91.000 7
107.000 8
108.000 0
109.000 0
119.000 18
120.000 0
131.000 1
132.000 1
135.000 27
146.000 0
147.000 5
148.000 0
149.000 288
159.000 6
160.000 2
161.000 5
163.000 9
165.000 106
167.000 0
173.000 3
174.000 0
175.000 31
176.000 11
177.000 37
178.000 23
179.000 1
187.000 7
188.000 578
189.000 679
190.000 30
192.000 9
193.000 0
195.000 16
200.000 0
201.000 1
202.000 1
204.000 11
205.000 1
206.000 129
207.000 8
209.000 1
217.000 6
218.000 1
219.000 1
223.000 17
225.000 11
226.000 0
233.000 1
235.000 32
237.000 17
238.000 0
239.000 1
245.000 5
247.000 81
248.000 1
249.000 4
251.000 1
253.000 16
261.000 1
263.000 17
265.000 48
266.000 1
267.000 29
268.000 0
269.000 0
275.000 171
276.000 0
277.000 4
278.000 21
279.000 3
280.000 1
281.000 3
283.000 10
289.000 1
291.000 4
292.000 3
293.000 42
294.000 1
295.000 31
296.000 1
304.000 0
305.000 35
306.000 23
307.000 6
308.000 0
311.000 9
320.000 19
321.000 27
322.000 0
323.000 37
324.000 3
325.000 1
326.000 0
332.000 0
334.000 25
335.000 0
336.000 94
337.000 0
353.000 2
354.000 999

Name: Nicotinoylcholine
Synon: trimethyl-[2-(pyridine-3-carbonyloxy)ethyl]azanium
DB#: MSBNK-IPB_Halle-PB000343
InChIKey: ZMPGJEYFRZCHQC-UHFFFAOYSA-N
InChI: InChI=1S/C11H17N2O2/c1-13(2,3)7-8-15-11(14)10-5-4-6-12-9-10/h4-6,9H,7-8H2,1-3H3/q+1
SMILES: C[N+](C)(C)CCOC(=O)C1=CN=CC=C1
Precursor_type: [M]+
Spectrum_type: MS2
Instrument_type: LC-ESI-QTOF
Instrument: API QSTAR Pulsar i
Ion_mode: POSITIVE
Collision_energy: 15 eV
Formula: [C11H17N2O2]+
MW: 209
ExactMass: 209.12900
Comments: Parent=-1
Splash: splash10-0pb9-0590000000-4fc6bfcb0be78d95228d
Num Peaks: 2
150.052 659
209.124 999

Name: Vitexin
Synon: Apigenin-8-C-glucoside
DB#: MSBNK-IPB_Halle-PN000127
InChIKey: SGEWCQFRYRRZDC-VPRICQMDSA-N
InChI: InChI=1S/C21H20O10/c22-7-14-17(27)18(28)19(29)21(31-14)16-11(25)5-10(24)15-12(26)6-13(30-20(15)16)8-1-3-9(23)4-2-8/h1-6,14,17-19,21-25,27-29H,7H2/t14-,17-,18+,19-,21+/m1/s1
SMILES: C1=CC(=CC=C1C2=CC(=O)C3=C(O2)C(=C(C=C3O)O)[C@H]4[C@@H]([C@H]([C@@H]([C@H](O4)CO)O)O)O)O
Precursor_type: [M-H]-
Spectrum_type: MS2
PrecursorMZ: 431.092
Instrument_type: ESI-TOF
Instrument: micrOTOF-Q
Ion_mode: NEGATIVE
Collision_energy: 25 eV
Formula: C21H20O10
MW: 432
ExactMass: 432.10564683999996
Comments: Parent=431.092
Splash: splash10-03di-0049000000-c23b79d9b1d089be7f57
Num Peaks: 17
117.036 14
149.025 12
161.025 12
163.037 12
191.035 12
269.042 30
281.041 22
282.050 18
283.060 484
284.062 84
285.063 12
293.043 16
311.052 999
312.059 134
313.060 22
323.053 39
341.065 63

Name: Chlorogenic Acid
Synon: (1S,3R,4R,5R)-3-[(E)-3-(3,4-dihydroxyphenyl)prop-2-enoyl]oxy-1,4,5-trihydroxycyclohexane-1-carboxylic acid
DB#: MSBNK-IPB_Halle-PB005541
InChIKey: CWVRJTMFETXNAD-JUHZACGLSA-N
InChI: InChI=1S/C16H18O9/c17-9-3-1-8(5-10(9)18)2-4-13(20)25-12-7-16(24,15(22)23)6-11(19)14(12)21/h1-5,11-12,14,17-19,21,24H,6-7H2,(H,22,23)/b4-2+/t11-,12-,14-,16+/m1/s1
SMILES: C1[C@H]([C@H]([C@@H](C[C@@]1(C(=O)O)O)OC(=O)/C=C/C2=CC(=C(C=C2)O)O)O)O
Precursor_type: [M+H]+
Spectrum_type: MS2
Instrument_type: LC-ESI-QTOF
Instrument: micrOTOF-Q
Ion_mode: POSITIVE
Collision_energy: 10 eV
Formula: C16H18O9
MW: 354
ExactMass: 354.09508
Comments: Parent=-1
Splash: splash10-03di-0900000000-8b9084df0e617fe4e5d6
Num Peaks: 14
135.043 8
145.026 16
146.032 0
162.032 0
162.944 0
163.037 999
163.250 0
164.041 74
165.042 1
181.047 5
337.086 18
338.092 1
355.098 15
356.101 1

Name: Genistein 7-O-glucosylglucoside
DB#: MSBNK-IPB_Halle-PN000052
InChIKey: XJAZCXFILUKYFS-QYDRELJPSA-N
InChI: InChI=1S/C27H30O15/c28-7-16-20(33)21(34)23(36)27(40-16)42-25-17(8-29)41-26(24(37)22(25)35)39-12-5-14(31)18-15(6-12)38-9-13(19(18)32)10-1-3-11(30)4-2-10/h1-6,9,16-17,20-31,33-37H,7-8H2/t16-,17-,20-,21+,22-,23-,24-,25-,26?,27?/m0/s1
SMILES: C1=CC(=CC=C1C2=COC3=CC(=CC(=C3C2=O)O)OC4[C@H]([C@@H]([C@H]([C@@H](O4)CO)OC5[C@H]([C@@H]([C@H]([C@@H](O5)CO)O)O)O)O)O)O
Precursor_type: [M+H]+
Spectrum_type: MS2
PrecursorMZ: 595.166
Instrument_type: ESI-TOF
Instrument: micrOTOF-Q
Ion_mode: POSITIVE
Collision_energy: 15 eV
Formula: C27H30O15
MW: 594
ExactMass: 594.15847026
Comments: Parent=595.166
Splash: splash10-00di-0090300000-2a890fd4aac4121c2be7
Num Peaks: 4
271.0583 999
272.0638 161
433.1133 431
595.1653 69

Name: Asparagine
Synon: 2,4-diamino-4-oxobutanoic acid
DB#: MSBNK-IPB_Halle-PB000457
InChIKey: DCXYFEDJOCDNAF-UHFFFAOYSA-N
InChI: InChI=1S/C4H8N2O3/c5-2(4(8)9)1-3(6)7/h2H,1,5H2,(H2,6,7)(H,8,9)
SMILES: C(C(C(=O)O)N)C(=O)N
Precursor_type: [M+H]+
Spectrum_type: MS2
Instrument_type: LC-ESI-QTOF
Instrument: API QSTAR Pulsar i
Ion_mode: POSITIVE
Collision_energy: 15 eV
Formula: C4H8N2O3
MW: 132
ExactMass: 132.05349
Comments: Parent=-1
Splash: splash10-0080-9400000000-e663d413844b4139bd52
Num Peaks: 11
44.050 12
46.030 33
60.045 5
70.030 20
74.024 737
87.056 999
88.041 285
98.026 10
105.071 10
116.036 322
133.061 681

Name: Kaempferol-7-O-glucoside
Synon: Populnin
DB#: MSBNK-IPB_Halle-PN000114
InChIKey: YPWHZCPMOQGCDQ-HMGRVEAOSA-N
InChI: InChI=1S/C21H20O11/c22-7-13-15(25)17(27)19(29)21(32-13)30-10-5-11(24)14-12(6-10)31-20(18(28)16(14)26)8-1-3-9(23)4-2-8/h1-6,13,15,17,19,21-25,27-29H,7H2/t13-,15-,17+,19-,21-/m1/s1
SMILES: C1=CC(=CC=C1C2=C(C(=O)C3=C(C=C(C=C3O2)O[C@H]4[C@@H]([C@H]([C@@H]([C@H](O4)CO)O)O)O)O)O)O
Precursor_type: [M+H]+
Spectrum_type: MS2
PrecursorMZ: 449.104
Instrument_type: ESI-TOF
Instrument: micrOTOF-Q
Ion_mode: POSITIVE
Collision_energy: 15 eV
Formula: C21H20O11
MW: 448
ExactMass: 448.10056146
Comments: Parent=449.104
Splash: splash10-000i-0090000000-946ff4978dba15109d39
Num Peaks: 3
287.0515 999
288.0555 113
289.0574 15

Name: Biochanin A
Synon: 5,7-dihydroxy-3-(4-methoxyphenyl)chromen-4-one
DB#: MSBNK-IPB_Halle-PB005711
InChIKey: WUADCCWRTIWANL-UHFFFAOYSA-N
InChI: InChI=1S/C16H12O5/c1-20-11-4-2-9(3-5-11)12-8-21-14-7-10(17)6-13(18)15(14)16(12)19/h2-8,17-18H,1H3
SMILES: COC1=CC=C(C=C1)C2=COC3=CC(=CC(=C3C2=O)O)O
Precursor_type: [M+H]+
Spectrum_type: MS2
Instrument_type: LC-ESI-QTOF
Instrument: micrOTOF-Q
Ion_mode: POSITIVE
Collision_energy: 30 eV
Formula: C16H12O5
MW: 284
ExactMass: 284.06847
Comments: Parent=-1
Splash: splash10-03dl-0290000000-a8f84ce50fd8ea5a877e
Num Peaks: 125
115.052 5
116.061 0
118.040 20
119.047 2
121.026 6
121.063 2
123.042 20
124.014 54
125.018 1
126.030 0
127.053 1
128.060 4
129.066 4
130.039 12
130.081 0
131.047 12
132.053 6
133.064 26
134.035 0
134.070 0
135.043 2
137.020 3
139.043 6
140.059 4
141.068 15
142.072 0
144.054 6
145.028 0
145.062 20
146.067 5
147.044 2
149.022 49
150.028 4
152.008 161
153.016 130
154.019 4
155.049 4
156.055 1
157.063 10
158.034 121
159.040 15
160.049 3
161.060 5
161.096 1
163.036 4
165.017 0
165.068 1
167.036 2
168.055 36
169.063 22
170.019 44
171.038 14
171.067 0
172.048 10
173.057 8
174.062 0
175.038 0
176.047 2
177.045 0
179.033 15
180.049 1
181.064 3
183.046 4
183.075 6
184.050 10
185.057 43
186.064 42
187.068 8
188.057 1
192.035 0
195.039 1
196.049 16
197.057 100
198.062 23
199.042 5
200.044 16
201.053 13
203.032 3
207.038 0
210.027 1
211.061 12
212.046 13
212.905 0
213.051 999
213.260 0
213.402 0
214.057 219
214.127 0
215.062 20
216.038 51
217.044 5
224.043 36
225.051 105
226.058 30
227.036 14
228.037 8
229.082 189
230.085 21
231.084 0
235.035 0
239.068 1
240.048 1
240.076 0
241.046 434
242.053 760
242.243 0
242.368 0
243.057 84
244.063 1
252.038 45
253.046 359
254.048 46
255.056 4
256.033 2
256.069 0
257.074 4
261.068 0
267.065 2
269.040 569
269.217 0
270.046 329
271.051 38
274.042 5
285.071 151
286.074 20

Name: Biochanin A O-diglucoside malonylated
DB#: MSBNK-IPB_Halle-PN000093
InChI: N/A
SMILES: N/A
Precursor_type: [M+H]+
Spectrum_type: MS2
PrecursorMZ: 695.449
Instrument_type: ESI-TOF
Instrument: micrOTOF-Q
Ion_mode: POSITIVE
Collision_energy: 15 eV
Formula: C31H34O18
MW: 694
ExactMass: 694.174514248
Comments: Parent=695.449
Splash: splash10-000j-0090025000-ce4d2b7c7bcc73e288ff
Num Peaks: 7
285.0758 999
286.0791 117
533.1306 206
534.1392 72
695.1834 462
696.1893 129
697.2003 44

Name: Biochanin A
Synon: 5,7-dihydroxy-3-(4-methoxyphenyl)chromen-4-one
DB#: MSBNK-IPB_Halle-PB005710
InChIKey: WUADCCWRTIWANL-UHFFFAOYSA-N
InChI: InChI=1S/C16H12O5/c1-20-11-4-2-9(3-5-11)12-8-21-14-7-10(17)6-13(18)15(14)16(12)19/h2-8,17-18H,1H3
SMILES: COC1=CC=C(C=C1)C2=COC3=CC(=CC(=C3C2=O)O)O
Precursor_type: [M+H]+
Spectrum_type: MS2
Instrument_type: LC-ESI-QTOF
Instrument: micrOTOF-Q
Ion_mode: POSITIVE
Collision_energy: 25 eV
Formula: C16H12O5
MW: 284
ExactMass: 284.06847
Comments: Parent=-1
Splash: splash10-0fe3-0190000000-c5e36abf786412e0c524
Num Peaks: 116
118.040 15
119.043 1
121.028 5
121.065 0
123.042 37
124.014 32
125.016 0
128.061 1
130.040 1
131.047 3
132.054 2
133.063 23
134.067 0
135.042 3
137.021 0
139.038 5
140.053 0
141.067 4
144.052 3
145.028 0
145.062 5
146.069 2
147.041 1
149.021 70
150.027 5
151.039 0
152.009 188
153.016 95
154.018 4
155.046 0
157.060 1
158.035 60
159.040 6
159.075 2
160.051 0
161.059 1
161.093 4
163.038 5
165.067 0
167.031 2
168.055 9
169.062 11
170.019 59
171.031 2
172.048 3
173.059 7
176.042 0
177.049 0
179.031 25
180.037 1
181.064 1
183.048 1
183.073 6
184.052 2
185.057 8
186.063 15
187.072 4
191.031 0
192.039 0
196.048 9
197.057 58
198.063 9
199.069 3
200.043 8
201.052 14
202.060 0
210.032 2
211.038 3
211.070 14
212.046 6
213.052 394
214.057 105
215.064 12
216.038 19
217.043 1
217.073 0
224.043 15
225.051 51
226.058 29
227.056 8
228.041 4
229.082 395
230.086 42
231.087 0
235.039 0
239.065 7
240.070 1
241.046 165
241.787 0
242.053 746
242.171 0
243.057 81
244.062 1
252.037 76
252.109 0
253.046 484
254.049 57
255.057 13
256.058 2
257.077 18
258.080 1
261.067 1
267.059 7
268.733 0
269.040 526
269.891 0
270.048 774
271.051 85
272.051 1
274.045 6
284.796 0
284.969 0
285.071 999
286.075 132
286.196 0
287.072 4

Name: Camalexin
Synon: 3-(1,3-thiazol-2-yl)-1H-indole
DB#: MSBNK-IPB_Halle-PB000525
InChIKey: IYODIJVWGPRBGQ-UHFFFAOYSA-N
InChI: InChI=1S/C11H8N2S/c1-2-4-10-8(3-1)9(7-13-10)11-12-5-6-14-11/h1-7,13H
SMILES: C1=CC=C2C(=C1)C(=CN2)C3=NC=CS3
Precursor_type: [M+H]+
Spectrum_type: MS2
Instrument_type: LC-ESI-QTOF
Instrument: API QSTAR Pulsar i
Ion_mode: POSITIVE
Collision_energy: 40 eV
Formula: C11H8N2S
MW: 200
ExactMass: 200.04082
Comments: Parent=-1
Splash: splash10-0aou-5920000000-f4f7ca249e6cebc4f82b
Num Peaks: 19
57.988 81
58.995 999
89.038 35
91.053 18
98.006 31
116.050 231
117.056 137
130.063 109
142.053 472
143.060 248
148.019 36
160.024 242
167.061 15
168.069 150
169.076 29
173.030 91
174.037 119
200.037 73
201.047 408

Name: Naringenin
Synon: 5,7-dihydroxy-2-(4-hydroxyphenyl)chroman-4-one
DB#: MSBNK-IPB_Halle-PB000122
InChIKey: FTVWIRXFELQLPI-ZDUSSCGKSA-N
InChI: InChI=1S/C15H12O5/c16-9-3-1-8(2-4-9)13-7-12(19)15-11(18)5-10(17)6-14(15)20-13/h1-6,13,16-18H,7H2/t13-/m0/s1
SMILES: C1[C@H](OC2=CC(=CC(=C2C1=O)O)O)C3=CC=C(C=C3)O
Precursor_type: [M+H]+
Spectrum_type: MS2
Instrument_type: LC-ESI-QTOF
Instrument: API QSTAR Pulsar i
Ion_mode: POSITIVE
Collision_energy: 15 eV
Formula: C15H12O5
MW: 272
ExactMass: 272.06847
Comments: Parent=-1
Splash: splash10-00di-0090000000-ed08d01208992e5a7a9f
Num Peaks: 4
147.044 20
153.019 30
273.076 999
274.083 30

Name: Rutin
Synon: 2-(3,4-dihydroxyphenyl)-5,7-dihydroxy-3-[(2S,3R,4S,5S,6R)-3,4,5-trihydroxy-6-[[(2R,3R,4R,5R,6S)-3,4,5-trihydroxy-6-methyloxan-2-yl]oxymethyl]oxan-2-yl]oxychromen-4-one
DB#: MSBNK-IPB_Halle-PB006201
InChIKey: IKGXIBQEEMLURG-NVPNHPEKSA-N
InChI: InChI=1S/C27H30O16/c1-8-17(32)20(35)22(37)26(40-8)39-7-15-18(33)21(36)23(38)27(42-15)43-25-19(34)16-13(31)5-10(28)6-14(16)41-24(25)9-2-3-11(29)12(30)4-9/h2-6,8,15,17-18,20-23,26-33,35-38H,7H2,1H3/t8-,15+,17-,18+,20+,21-,22+,23+,26+,27-/m0/s1
SMILES: C[C@H]1[C@@H]([C@H]([C@H]([C@@H](O1)OC[C@@H]2[C@H]([C@@H]([C@H]([C@@H](O2)OC3=C(OC4=CC(=CC(=C4C3=O)O)O)C5=CC(=C(C=C5)O)O)O)O)O)O)O)O
Precursor_type: [M+H]+
Spectrum_type: MS2
Instrument_type: LC-ESI-QTOF
Instrument: micrOTOF-Q
Ion_mode: POSITIVE
Collision_energy: 10 eV
Formula: C27H30O16
MW: 610
ExactMass: 610.15338
Comments: Parent=-1
Splash: splash10-0udi-0009300000-d5183f81716bf8deb8ee
Num Peaks: 19
129.053 1
147.064 0
255.083 0
273.093 1
302.771 0
302.862 0
303.046 999
303.676 0
304.049 102
305.052 4
309.114 3
449.102 26
450.106 3
465.097 372
466.100 61
467.103 2
611.153 61
612.156 14
613.158 0

Name: Phenylalanine
Synon: 2-amino-3-phenylpropanoic acid
DB#: MSBNK-IPB_Halle-PB000409
InChIKey: COLNVLDHVKWLRT-QMMMGPOBSA-N
InChI: InChI=1S/C9H11NO2/c10-8(9(11)12)6-7-4-2-1-3-5-7/h1-5,8H,6,10H2,(H,11,12)/t8-/m0/s1
SMILES: C1=CC=C(C=C1)C[C@@H](C(=O)O)N
Precursor_type: [M+H]+
Spectrum_type: MS2
Instrument_type: LC-ESI-QTOF
Instrument: API QSTAR Pulsar i
Ion_mode: POSITIVE
Collision_energy: 40 eV
Formula: C9H11NO2
MW: 165
ExactMass: 165.07898
Comments: Parent=-1
Splash: splash10-0udi-2900000000-2865cb7faeead8764cb4
Num Peaks: 17
64.929 5
65.039 2
77.038 182
79.054 89
80.051 4
91.055 98
93.070 66
95.051 25
102.047 30
103.056 999
104.058 11
105.049 17
107.051 6
118.067 21
119.073 18
120.083 340
121.085 4

Name: Harmane
Synon: 1-methyl-9H-pyrido[3,4-b]indole
DB#: MSBNK-IPB_Halle-PB005783
InChIKey: PSFDQSOCUJVVGF-UHFFFAOYSA-N
InChI: InChI=1S/C12H10N2/c1-8-12-10(6-7-13-8)9-4-2-3-5-11(9)14-12/h2-7,14H,1H3
SMILES: CC1=NC=CC2=C1NC3=CC=CC=C23
Precursor_type: [M+H]+
Spectrum_type: MS2
Instrument_type: LC-ESI-QTOF
Instrument: micrOTOF-Q
Ion_mode: POSITIVE
Collision_energy: 25 eV
Formula: C12H10N2
MW: 182
ExactMass: 182.08440
Comments: Parent=-1
Splash: splash10-001i-0900000000-f782ac14295437be4ac3
Num Peaks: 30
114.044 1
115.052 325
116.055 30
117.056 1
127.052 1
128.059 21
129.067 26
130.068 4
139.054 2
140.048 39
141.055 33
142.063 116
143.068 13
145.064 3
146.059 0
154.063 28
155.071 15
156.079 31
157.080 2
166.063 15
167.062 47
168.066 273
169.069 25
181.074 43
182.082 217
182.938 0
183.089 999
183.379 0
184.092 112
185.069 12

Name: Asparagine
Synon: 2,4-diamino-4-oxobutanoic acid
DB#: MSBNK-IPB_Halle-PB000458
InChIKey: DCXYFEDJOCDNAF-UHFFFAOYSA-N
InChI: InChI=1S/C4H8N2O3/c5-2(4(8)9)1-3(6)7/h2H,1,5H2,(H2,6,7)(H,8,9)
SMILES: C(C(C(=O)O)N)C(=O)N
Precursor_type: [M+H]+
Spectrum_type: MS2
Instrument_type: LC-ESI-QTOF
Instrument: API QSTAR Pulsar i
Ion_mode: POSITIVE
Collision_energy: 20 eV
Formula: C4H8N2O3
MW: 132
ExactMass: 132.05349
Comments: Parent=-1
Splash: splash10-00di-9000000000-778e23e419696650a762
Num Peaks: 13
43.019 12
44.050 28
46.030 40
60.045 9
70.030 61
74.024 999
87.056 325
88.041 90
98.026 8
99.010 7
105.073 15
116.036 90
133.063 42

Name: Safranin
Synon: 3,7-dimethyl-10-phenylphenazin-10-ium-2,8-diamine
DB#: MSBNK-IPB_Halle-PB005962
InChIKey: WULISCVZERSMML-UHFFFAOYSA-O
InChI: InChI=1S/C20H18N4/c1-12-8-17-19(10-15(12)21)24(14-6-4-3-5-7-14)20-11-16(22)13(2)9-18(20)23-17/h3-11H,1-2H3,(H3,21,22)/p+1
SMILES: CC1=CC2=C(C=C1N)[N+](=C3C=C(C(=CC3=N2)C)N)C4=CC=CC=C4
Precursor_type: [M]+
Spectrum_type: MS2
Instrument_type: LC-ESI-QTOF
Instrument: micrOTOF-Q
Ion_mode: POSITIVE
Collision_energy: 15 eV
Formula: [C20H19N4]+
MW: 315
ExactMass: 315.16097
Comments: Parent=-1
Splash: splash10-014i-0009000000-2c419d50b79be7710de6
Num Peaks: 5
299.127 0
314.952 0
315.157 999
316.159 168
317.162 1

Name: (-)-Epicatechin
Synon: (2R,3R)-2-(3,4-dihydroxyphenyl)-3,4-dihydro-2H-chromene-3,5,7-triol
DB#: MSBNK-IPB_Halle-PB006281
InChIKey: PFTAWBLQPZVEMU-UKRRQHHQSA-N
InChI: InChI=1S/C15H14O6/c16-8-4-11(18)9-6-13(20)15(21-14(9)5-8)7-1-2-10(17)12(19)3-7/h1-5,13,15-20H,6H2/t13-,15-/m1/s1
SMILES: C1[C@H]([C@H](OC2=CC(=CC(=C21)O)O)C3=CC(=C(C=C3)O)O)O
Precursor_type: [M+H]+
Spectrum_type: MS2
Instrument_type: LC-ESI-QTOF
Instrument: micrOTOF-Q
Ion_mode: POSITIVE
Collision_energy: 10 eV
Formula: C15H14O6
MW: 290
ExactMass: 290.07904
Comments: Parent=-1
Splash: splash10-000l-0950000000-2f53f8d4942f8756529f
Num Peaks: 59
119.048 2
123.042 272
124.047 16
127.037 3
135.046 0
137.058 2
138.895 0
138.931 0
138.965 0
139.037 999
139.157 0
139.234 0
140.041 51
141.045 0
143.051 0
147.042 123
148.045 5
151.037 32
151.094 0
152.042 2
153.053 6
161.059 10
163.038 16
164.036 0
165.052 287
166.056 19
167.032 0
169.047 36
170.056 0
179.065 8
181.047 18
182.048 1
189.051 6
203.064 2
205.082 8
206.089 0
207.062 112
208.067 9
213.050 3
227.063 1
231.061 16
232.066 0
233.041 0
244.067 0
245.076 1
249.072 82
250.075 8
255.062 7
273.072 104
274.075 10
289.065 0
290.070 4
291.082 696
291.247 0
291.548 0
292.086 78
292.172 0
292.217 0
293.095 1

Name: Methoxyindoleacetic acid
Synon: 2-(5-methoxy-1H-indol-3-yl)acetic acid
DB#: MSBNK-IPB_Halle-PB000523
InChIKey: COCNDHOPIHDTHK-UHFFFAOYSA-N
InChI: InChI=1S/C11H11NO3/c1-15-8-2-3-10-9(5-8)7(6-12-10)4-11(13)14/h2-3,5-6,12H,4H2,1H3,(H,13,14)
SMILES: COC1=CC2=C(C=C1)NC=C2CC(=O)O
Precursor_type: [M+H]+
Spectrum_type: MS2
Instrument_type: LC-ESI-QTOF
Instrument: API QSTAR Pulsar i
Ion_mode: POSITIVE
Collision_energy: 60 eV
Formula: C11H11NO3
MW: 205
ExactMass: 205.07389
Comments: Parent=-1
Splash: splash10-014i-7900000000-ceb8e6c122bb9a4d3fbb
Num Peaks: 40
45.032 5
51.022 8
63.021 7
64.029 8
65.038 13
66.045 3
75.020 21
76.028 3
77.037 253
78.035 29
79.052 21
89.037 351
90.044 588
91.050 74
92.024 11
93.053 1
94.039 2
95.048 29
96.046 3
101.038 16
102.043 21
103.052 92
104.049 137
105.048 17
115.049 4
116.048 135
117.057 999
118.053 140
119.044 13
120.047 1
128.049 10
129.043 11
130.062 20
132.043 17
133.063 28
134.058 2
144.041 4
145.049 76
146.056 16
160.075 11

Name: Bergapten
Synon: 4-methoxyfuro[3,2-g]chromen-7-one
DB#: MSBNK-IPB_Halle-PB006145
InChIKey: BGEBZHIAGXMEMV-UHFFFAOYSA-N
InChI: InChI=1S/C12H8O4/c1-14-12-7-2-3-11(13)16-10(7)6-9-8(12)4-5-15-9/h2-6H,1H3
SMILES: COC1=C2C=CC(=O)OC2=CC3=C1C=CO3
Precursor_type: [M+H]+
Spectrum_type: MS2
Instrument_type: LC-ESI-QTOF
Instrument: micrOTOF-Q
Ion_mode: POSITIVE
Collision_energy: 20 eV
Formula: C12H8O4
MW: 216
ExactMass: 216.04226
Comments: Parent=-1
Splash: splash10-0udi-0290000000-d6eb013ef1071457a5b1
Num Peaks: 30
115.052 6
117.067 0
118.041 7
130.038 1
131.048 16
132.052 0
133.063 2
143.047 3
145.030 1
145.060 2
146.035 33
147.039 2
156.019 3
158.034 7
159.038 0
161.057 12
162.058 0
171.042 0
173.057 11
174.029 232
175.033 19
176.035 0
178.023 2
189.053 1
201.892 0
202.024 999
203.027 107
204.029 4
217.047 123
218.050 13

Name: Bicuculline
Synon: (6R)-6-[(5S)-6-methyl-7,8-dihydro-5H-[1,3]dioxolo[4,5-g]isoquinolin-5-yl]-6H-furo[3,4-g][1,3]benzodioxol-8-one
DB#: MSBNK-IPB_Halle-PB005942
InChIKey: IYGYMKDQCDOMRE-ZWKOTPCHSA-N
InChI: InChI=1S/C20H17NO6/c1-21-5-4-10-6-14-15(25-8-24-14)7-12(10)17(21)18-11-2-3-13-19(26-9-23-13)16(11)20(22)27-18/h2-3,6-7,17-18H,4-5,8-9H2,1H3/t17-,18+/m0/s1
SMILES: CN1CCC2=CC3=C(C=C2[C@H]1[C@H]4C5=C(C6=C(C=C5)OCO6)C(=O)O4)OCO3
Precursor_type: [M+H]+
Spectrum_type: MS2
Instrument_type: LC-ESI-QTOF
Instrument: micrOTOF-Q
Ion_mode: POSITIVE
Collision_energy: 15 eV
Formula: C20H17NO6
MW: 367
ExactMass: 367.10559
Comments: Parent=-1
Splash: splash10-066r-0009000000-d8e744c493912dace636
Num Peaks: 55
149.059 4
176.070 4
188.068 1
189.076 4
190.084 54
191.089 7
223.073 0
233.057 0
235.073 0
249.052 14
250.054 1
251.066 3
261.053 6
262.057 0
263.067 3
265.074 0
267.062 2
277.047 57
278.051 8
279.062 11
280.067 0
281.076 7
282.081 0
289.047 16
290.050 1
291.063 6
292.069 3
293.077 4
294.082 0
295.057 13
296.060 0
297.073 1
303.062 4
307.057 773
307.297 0
308.060 116
309.067 10
310.079 0
319.057 100
320.061 14
321.073 4
325.067 57
326.071 8
332.087 1
335.076 5
337.068 30
338.071 3
339.086 1
350.098 10
351.100 1
367.722 0
367.857 0
368.110 999
369.113 174
370.115 7

Name: Xanthohumol
Synon: (E)-1-[2,4-dihydroxy-6-methoxy-3-(3-methylbut-2-enyl)phenyl]-3-(4-hydroxyphenyl)prop-2-en-1-one
DB#: MSBNK-IPB_Halle-PB004921
InChIKey: ORXQGKIUCDPEAJ-YRNVUSSQSA-N
InChI: InChI=1S/C21H22O5/c1-13(2)4-10-16-18(24)12-19(26-3)20(21(16)25)17(23)11-7-14-5-8-15(22)9-6-14/h4-9,11-12,22,24-25H,10H2,1-3H3/b11-7+
SMILES: CC(=CCC1=C(C(=C(C=C1O)OC)C(=O)/C=C/C2=CC=C(C=C2)O)O)C
Precursor_type: [M+H]+
Spectrum_type: MS2
Instrument_type: LC-ESI-QQ
Instrument: TSQ QUANTUM AM
Ion_mode: POSITIVE
Collision_energy: 15 eV
Formula: C21H22O5
MW: 354
ExactMass: 354.14672
Comments: Parent=-1
Splash: splash10-004j-0970000000-179d5086107c87523593
Num Peaks: 5
179.000 999
235.000 12
257.000 13
299.000 841
355.000 91

Name: Kaempferol-7-O-neohesperidoside
DB#: MSBNK-IPB_Halle-PN000126
InChIKey: OHOBPOYHROOXEI-JWMUNMLDSA-N
InChI: InChI=1S/C27H30O15/c1-9-17(32)20(35)22(37)26(38-9)42-25-21(36)18(33)15(8-28)40-27(25)41-24-19(34)16-13(31)6-12(30)7-14(16)39-23(24)10-2-4-11(29)5-3-10/h2-7,9,15,17-18,20-22,25-33,35-37H,8H2,1H3/t9-,15+,17-,18+,20+,21-,22+,25+,26-,27-/m0/s1
SMILES: C[C@H]1[C@@H]([C@H]([C@H]([C@@H](O1)O[C@@H]2[C@H]([C@@H]([C@H](O[C@H]2OC3=C(OC4=CC(=CC(=C4C3=O)O)O)C5=CC=C(C=C5)O)CO)O)O)O)O)O
Precursor_type: [M-H]-
Spectrum_type: MS2
PrecursorMZ: 593.14
Instrument_type: ESI-TOF
Instrument: micrOTOF-Q
Ion_mode: NEGATIVE
Collision_energy: 25 eV
Formula: C27H30O15
MW: 594
ExactMass: 594.1584702600001
Comments: Parent=593.14
Splash: splash10-000l-0090050000-177f0924c170bd479ab2
Num Peaks: 8
284.0264 50
285.0345 999
286.0386 130
429.0722 47
473.0924 30
593.1380 593
594.1454 121
595.1500 26

Name: Aminocaproic acid
Synon: 6-aminohexanoic acid
DB#: MSBNK-IPB_Halle-PB000471
InChIKey: SLXKOJJOQWFEFD-UHFFFAOYSA-N
InChI: InChI=1S/C6H13NO2/c7-5-3-1-2-4-6(8)9/h1-5,7H2,(H,8,9)
SMILES: C(CCC(=O)O)CCN
Precursor_type: [M+H]+
Spectrum_type: MS2
Instrument_type: LC-ESI-QTOF
Instrument: API QSTAR Pulsar i
Ion_mode: POSITIVE
Collision_energy: 30 eV
Formula: C6H13NO2
MW: 131
ExactMass: 131.09463
Comments: Parent=-1
Splash: splash10-014i-9000000000-4b1019dc1efb41cf5840
Num Peaks: 21
39.024 42
41.040 286
43.020 12
43.055 15
45.034 8
55.056 317
67.056 89
68.051 38
69.071 999
70.067 22
71.050 27
72.082 11
73.066 229
77.039 74
79.055 400
81.059 15
86.097 17
95.050 17
96.083 70
97.067 47
114.093 23

Name: Genistein C,O-diglucoside malonylated
DB#: MSBNK-IPB_Halle-PN000035
InChI: N/A
SMILES: N/A
Precursor_type: [M+H]+
Spectrum_type: MS2
PrecursorMZ: 681.168
Instrument_type: ESI-TOF
Instrument: micrOTOF-Q
Ion_mode: POSITIVE
Collision_energy: 15 eV
Formula: C30H32O18
MW: 680
ExactMass: 680.158864184
Comments: Parent=681.168
Splash: splash10-001i-0000229000-8dfa72a88bf61cf0f464
Num Peaks: 29
313.0716 8
367.0871 7
379.0821 16
397.0935 38
398.0977 8
415.1045 121
416.1071 25
433.1162 220
434.1201 42
435.1159 8
517.1349 40
518.1416 10
519.1331 19
531.1140 7
543.1313 13
561.1277 156
562.1304 44
563.1365 10
585.1281 26
586.1353 10
627.1399 8
637.1843 21
645.1459 10
663.1578 52
664.1631 14
681.1683 999
682.1733 228
683.1765 47
684.1813 7

Name: Serine
Synon: 2-amino-3-hydroxypropanoic acid
DB#: MSBNK-IPB_Halle-PB000399
InChIKey: MTCFGRXMJLQNBG-UHFFFAOYSA-N
InChI: InChI=1S/C3H7NO3/c4-2(1-5)3(6)7/h2,5H,1,4H2,(H,6,7)
SMILES: C(C(C(=O)O)N)O
Precursor_type: [M+H]+
Spectrum_type: MS2
Instrument_type: LC-ESI-QTOF
Instrument: API QSTAR Pulsar i
Ion_mode: POSITIVE
Collision_energy: 10 eV
Formula: C3H7NO3
MW: 105
ExactMass: 105.04259
Comments: Parent=-1
Splash: splash10-0a4i-4900000000-3f93120669caa8042e73
Num Peaks: 4
60.045 437
70.030 2
88.040 101
106.050 999

Name: Leucine
Synon: 2-amino-4-methylpentanoic acid
DB#: MSBNK-IPB_Halle-PB000393
InChIKey: ROHFNLRQFUQHCH-UHFFFAOYSA-N
InChI: InChI=1S/C6H13NO2/c1-4(2)3-5(7)6(8)9/h4-5H,3,7H2,1-2H3,(H,8,9)
SMILES: CC(C)CC(C(=O)O)N
Precursor_type: [M+H]+
Spectrum_type: MS2
Instrument_type: LC-ESI-QTOF
Instrument: API QSTAR Pulsar i
Ion_mode: POSITIVE
Collision_energy: 25 eV
Formula: C6H13NO2
MW: 131
ExactMass: 131.09463
Comments: Parent=-1
Splash: splash10-000i-9000000000-f34b46cb8fb87529bdf4
Num Peaks: 12
39.023 1
41.040 26
43.056 90
44.052 217
55.057 3
57.072 0
58.068 0
62.933 3
69.073 39
73.066 4
86.099 999
132.104 0

Name: Chrysoeriol
Synon: 5,7-Dihydroxy-2-(4-hydroxy-3-methoxyphenyl)-4-benzopyrone
Synon: 3'-Methoxyapigenin
DB#: MSBNK-IPB_Halle-PN000008
InChIKey: SCZVLDHREVKTSH-UHFFFAOYSA-N
InChI: InChI=1S/C16H12O6/c1-21-14-4-8(2-3-10(14)18)13-7-12(20)16-11(19)5-9(17)6-15(16)22-13/h2-7,17-19H,1H3
SMILES: COC1=CC(=CC=C1(O))C2=CC(=O)C3=C(O)C=C(O)C=C3(O2)
Precursor_type: [M-H]-
Spectrum_type: MS2
PrecursorMZ: 299.052
Instrument_type: ESI-TOF
Instrument: micrOTOF-Q
Ion_mode: NEGATIVE
Collision_energy: 25 eV
Formula: C16H12O6
MW: 300
ExactMass: 300.06338810399996
Comments: Parent=299.052
Splash: splash10-0a59-0390000000-2ec674935b9c664e6e23
Num Peaks: 20
107.012 143
132.016 55
133.027 79
134.037 106
151.003 288
152.010 52
183.042 106
187.039 53
188.044 63
199.035 100
200.045 106
211.041 142
227.034 362
228.037 74
255.029 314
256.034 999
257.040 106
283.022 70
284.028 597
285.034 123

Name: Chlorogenic Acid
Synon: (1S,3R,4R,5R)-3-[(E)-3-(3,4-dihydroxyphenyl)prop-2-enoyl]oxy-1,4,5-trihydroxycyclohexane-1-carboxylic acid
DB#: MSBNK-IPB_Halle-PB006181
InChIKey: CWVRJTMFETXNAD-JUHZACGLSA-N
InChI: InChI=1S/C16H18O9/c17-9-3-1-8(5-10(9)18)2-4-13(20)25-12-7-16(24,15(22)23)6-11(19)14(12)21/h1-5,11-12,14,17-19,21,24H,6-7H2,(H,22,23)/b4-2+/t11-,12-,14-,16+/m1/s1
SMILES: C1[C@H]([C@H]([C@@H](C[C@@]1(C(=O)O)O)OC(=O)/C=C/C2=CC(=C(C=C2)O)O)O)O
Precursor_type: [M+H]+
Spectrum_type: MS2
Instrument_type: LC-ESI-QTOF
Instrument: micrOTOF-Q
Ion_mode: POSITIVE
Collision_energy: 15 eV
Formula: C16H18O9
MW: 354
ExactMass: 354.09508
Comments: Parent=-1
Splash: splash10-03di-0900000000-7eaad1ea196caa734849
Num Peaks: 16
117.032 1
134.032 0
135.043 33
136.048 2
145.027 54
146.030 2
163.038 999
163.235 0
163.281 0
163.334 0
164.041 80
165.040 0
180.041 0
181.049 7
337.089 16
338.093 0

Name: Biochanin A
Synon: 5,7-dihydroxy-3-(4-methoxyphenyl)chromen-4-one
DB#: MSBNK-IPB_Halle-PB000263
InChIKey: WUADCCWRTIWANL-UHFFFAOYSA-N
InChI: InChI=1S/C16H12O5/c1-20-11-4-2-9(3-5-11)12-8-21-14-7-10(17)6-13(18)15(14)16(12)19/h2-8,17-18H,1H3
SMILES: COC1=CC=C(C=C1)C2=COC3=CC(=CC(=C3C2=O)O)O
Precursor_type: [M+H]+
Spectrum_type: MS2
Instrument_type: LC-ESI-QTOF
Instrument: API QSTAR Pulsar i
Ion_mode: POSITIVE
Collision_energy: 55 eV
Formula: C16H12O5
MW: 284
ExactMass: 284.06847
Comments: Parent=-1
Splash: splash10-03dl-1940000000-d6a0d7d5a724d4c6e1db
Num Peaks: 89
55.015 7
65.036 10
67.016 27
68.023 6
68.995 56
77.037 36
79.052 40
89.036 66
90.044 178
91.051 22
95.048 13
96.018 74
102.044 42
103.052 52
105.065 21
107.046 8
108.022 25
111.009 36
115.052 137
116.057 25
117.061 29
118.040 274
119.046 23
121.037 108
123.038 50
124.012 393
125.020 9
127.049 19
128.058 55
129.063 66
130.041 110
131.046 58
132.051 23
133.060 51
134.037 10
135.040 10
136.014 14
137.021 11
139.052 59
140.060 41
141.068 87
143.047 35
144.053 34
145.059 68
147.043 13
149.022 38
151.049 9
152.007 145
153.018 230
155.052 46
156.055 7
157.058 101
158.040 201
159.048 30
160.052 19
167.048 16
168.057 107
169.064 59
170.024 17
171.044 127
172.051 15
173.060 15
179.047 13
181.065 8
183.052 25
184.053 39
185.061 193
186.067 57
187.049 15
195.047 19
196.053 25
197.060 157
198.059 11
199.040 28
200.047 15
201.056 9
211.049 12
212.049 17
213.055 999
214.061 82
216.043 56
224.047 24
225.054 71
227.036 22
229.081 14
241.050 405
242.058 116
253.052 88
269.048 144

Name: Hesperidin methyl chalcone
Synon: (E)-3-(3-hydroxy-4-methoxyphenyl)-1-[2-hydroxy-6-methoxy-4-[(2S,3R,4S,5S,6R)-3,4,5-trihydroxy-6-[[(2R,3R,4R,5R,6S)-3,4,5-trihydroxy-6-methyloxan-2-yl]oxymethyl]oxan-2-yl]oxyphenyl]prop-2-en-1-one
DB#: MSBNK-IPB_Halle-PB006243
InChIKey: FDHNLHLOJLLXDH-JIYHLSBYSA-N
InChI: InChI=1S/C29H36O15/c1-12-22(33)24(35)26(37)28(42-12)41-11-20-23(34)25(36)27(38)29(44-20)43-14-9-17(32)21(19(10-14)40-3)15(30)6-4-13-5-7-18(39-2)16(31)8-13/h4-10,12,20,22-29,31-38H,11H2,1-3H3/b6-4+/t12-,20+,22-,23+,24+,25-,26+,27+,28+,29+/m0/s1
SMILES: C[C@H]1[C@@H]([C@H]([C@H]([C@@H](O1)OC[C@@H]2[C@H]([C@@H]([C@H]([C@@H](O2)OC3=CC(=C(C(=C3)OC)C(=O)/C=C/C4=CC(=C(C=C4)OC)O)O)O)O)O)O)O)O
Precursor_type: [M+H]+
Spectrum_type: MS2
Instrument_type: LC-ESI-QTOF
Instrument: micrOTOF-Q
Ion_mode: POSITIVE
Collision_energy: 20 eV
Formula: C29H36O15
MW: 624
ExactMass: 624.20542
Comments: Parent=-1
Splash: splash10-014i-0009000000-2353cbe84425c8a49af9
Num Peaks: 56
129.053 4
147.065 0
153.017 10
165.089 0
171.029 0
179.033 4
191.068 7
195.027 12
196.032 0
219.026 8
245.041 7
261.035 0
263.052 52
264.055 4
279.047 0
281.062 32
282.068 2
289.068 0
297.058 0
299.079 7
300.084 0
301.103 6
302.108 2
315.086 9
316.084 3
316.790 0
316.906 0
317.098 999
317.411 0
317.628 0
318.102 135
319.104 6
329.099 7
330.101 0
341.097 7
342.103 0
359.108 38
360.112 5
371.105 0
383.108 24
384.111 3
409.123 7
410.130 0
425.117 0
427.134 35
428.137 5
443.129 0
445.143 17
446.147 3
461.138 1
463.154 11
464.160 1
477.134 1
478.138 1
479.149 10
480.154 1

Name: Apigenin
Synon: 4',5,7-Trihydroxyflavone
Synon: Spigenin
DB#: MSBNK-IPB_Halle-PN000010
InChIKey: KZNIFHPLKGYRTM-UHFFFAOYSA-N
InChI: InChI=1S/C15H10O5/c16-9-3-1-8(2-4-9)13-7-12(19)15-11(18)5-10(17)6-14(15)20-13/h1-7,16-18H
SMILES: OC=1C=CC(=CC=1)C2=CC(=O)C3=C(O)C=C(O)C=C3(O2)
Precursor_type: [M+H]+
Spectrum_type: MS2
PrecursorMZ: 271.057
Instrument_type: ESI-TOF
Instrument: micrOTOF-Q
Ion_mode: POSITIVE
Collision_energy: 15 eV
Formula: C15H10O5
MW: 270
ExactMass: 270.05282342
Comments: Parent=271.057
Splash: splash10-0udi-1900000000-51921732db8f71e60d13
Num Peaks: 26
91.053 300
92.057 22
97.029 22
111.009 19
115.054 65
119.049 321
120.053 21
121.028 148
125.021 21
131.049 27
141.070 60
145.028 208
146.033 27
153.017 999
154.021 64
155.046 38
163.037 49
168.054 20
169.059 29
171.029 19
197.056 45
229.047 17
242.059 16
243.062 28
271.056 93
272.061 18

Name: Quercetin
Synon: 2-(3,4-dihydroxyphenyl)-3,5,7-trihydroxychromen-4-one
DB#: MSBNK-IPB_Halle-PB004103
InChIKey: REFJWTPEDVJJIY-UHFFFAOYSA-N
InChI: InChI=1S/C15H10O7/c16-7-4-10(19)12-11(5-7)22-15(14(21)13(12)20)6-1-2-8(17)9(18)3-6/h1-5,16-19,21H
SMILES: C1=CC(=C(C=C1C2=C(C(=O)C3=C(C=C(C=C3O2)O)O)O)O)O
Precursor_type: [M-H]-
Spectrum_type: MS2
Instrument_type: LC-ESI-QQ
Instrument: TSQ 7000
Ion_mode: NEGATIVE
Collision_energy: 30 eV
Formula: C15H10O7
MW: 302
ExactMass: 302.04265
Comments: Parent=-1
Splash: splash10-0udi-0910000000-ddd05c50a7b3c03051a4
Num Peaks: 115
63.000 18
65.000 64
83.000 61
93.000 29
95.000 1
96.000 0
107.000 272
108.000 8
109.000 30
111.000 2
115.000 1
117.000 0
119.000 0
120.000 4
121.000 296
123.000 7
124.000 10
125.000 16
129.000 1
130.000 1
131.000 2
132.000 0
133.000 4
134.000 0
135.000 8
136.000 4
137.000 1
139.000 0
142.000 1
143.000 4
144.000 1
145.000 7
146.000 2
147.000 11
148.000 5
149.000 49
151.000 999
152.000 6
155.000 1
157.000 2
158.000 7
159.000 30
161.000 34
162.000 3
163.000 72
164.000 37
165.000 8
167.000 5
168.000 1
169.000 3
170.000 3
171.000 5
172.000 0
173.000 10
174.000 0
175.000 22
177.000 10
179.000 140
182.000 1
183.000 12
184.000 2
185.000 9
186.000 1
187.000 34
189.000 13
190.000 2
191.000 1
192.000 4
193.000 23
195.000 0
196.000 0
197.000 1
198.000 0
199.000 8
200.000 1
201.000 29
203.000 12
204.000 0
205.000 11
209.000 0
210.000 0
211.000 29
212.000 3
213.000 9
214.000 5
215.000 4
216.000 3
217.000 9
224.000 0
225.000 11
227.000 19
228.000 4
229.000 27
230.000 7
231.000 2
232.000 0
233.000 3
239.000 2
240.000 5
241.000 1
243.000 46
244.000 4
245.000 64
254.000 2
255.000 8
256.000 4
257.000 3
271.000 3
272.000 4
273.000 22
283.000 0
284.000 9
299.000 7
300.000 2
301.000 16

Name: Valine
Synon: 2-amino-3-methylbutanoic acid
DB#: MSBNK-IPB_Halle-PB000389
InChIKey: KZSNJWFQEVHDMF-UHFFFAOYSA-N
InChI: InChI=1S/C5H11NO2/c1-3(2)4(6)5(7)8/h3-4H,6H2,1-2H3,(H,7,8)
SMILES: CC(C)C(C(=O)O)N
Precursor_type: [M+H]+
Spectrum_type: MS2
Instrument_type: LC-ESI-QTOF
Instrument: API QSTAR Pulsar i
Ion_mode: POSITIVE
Collision_energy: 25 eV
Formula: C5H11NO2
MW: 117
ExactMass: 117.07898
Comments: Parent=-1
Splash: splash10-05fr-9000000000-c3e6c9d813e91302060b
Num Peaks: 6
44.051 3
53.042 4
55.057 629
57.060 36
59.051 14
72.082 999

Name: Phloretin
Synon: 3-(4-hydroxyphenyl)-1-(2,4,6-trihydroxyphenyl)propan-1-one
DB#: MSBNK-IPB_Halle-PB000701
InChIKey: VGEREEWJJVICBM-UHFFFAOYSA-N
InChI: InChI=1S/C15H14O5/c16-10-4-1-9(2-5-10)3-6-12(18)15-13(19)7-11(17)8-14(15)20/h1-2,4-5,7-8,16-17,19-20H,3,6H2
SMILES: C1=CC(=CC=C1CCC(=O)C2=C(C=C(C=C2O)O)O)O
Precursor_type: [M+H]+
Spectrum_type: MS2
Instrument_type: LC-ESI-QTOF
Instrument: API QSTAR Pulsar i
Ion_mode: POSITIVE
Collision_energy: 40 eV
Formula: C15H14O5
MW: 274
ExactMass: 274.08412
Comments: Parent=-1
Splash: splash10-0a4i-0900000000-0c999f95c930697ca836
Num Peaks: 7
77.038 10
79.055 7
107.049 999
108.052 25
123.043 14
151.037 23
169.051 15

Name: Quercetin
Synon: 2-(3,4-dihydroxyphenyl)-3,5,7-trihydroxychromen-4-one
DB#: MSBNK-IPB_Halle-PB000221
InChIKey: REFJWTPEDVJJIY-UHFFFAOYSA-N
InChI: InChI=1S/C15H10O7/c16-7-4-10(19)12-11(5-7)22-15(14(21)13(12)20)6-1-2-8(17)9(18)3-6/h1-5,16-19,21H
SMILES: C1=CC(=C(C=C1C2=C(C(=O)C3=C(C=C(C=C3O2)O)O)O)O)O
Precursor_type: [M+H]+
Spectrum_type: MS2
Instrument_type: LC-ESI-QTOF
Instrument: API QSTAR Pulsar i
Ion_mode: POSITIVE
Collision_energy: 55 eV
Formula: C15H10O7
MW: 302
ExactMass: 302.04265
Comments: Parent=-1
Splash: splash10-0zi0-1910000000-86be3c6959d182874340
Num Peaks: 87
53.036 21
55.016 60
65.037 52
67.017 68
67.055 38
68.996 304
77.038 50
79.053 13
81.034 105
83.014 11
89.037 10
91.051 35
93.032 34
95.049 60
97.028 29
103.053 40
105.042 94
107.048 47
108.021 25
109.028 131
110.035 18
111.013 73
113.036 13
115.053 172
116.060 17
117.067 143
119.045 22
121.029 255
122.034 14
123.043 93
124.020 11
125.023 14
126.040 25
127.049 218
128.060 60
129.060 22
131.047 124
133.025 22
135.042 54
136.017 24
137.025 530
138.030 14
139.051 31
141.036 12
143.050 18
144.056 18
145.062 204
147.042 22
149.029 40
150.031 10
151.039 9
153.018 999
154.025 27
155.051 594
156.055 25
157.063 16
159.044 49
160.054 19
161.053 72
163.043 68
165.021 66
166.028 14
171.046 19
172.053 10
173.061 186
176.049 10
177.036 35
179.037 55
183.047 168
184.055 46
187.044 110
191.049 15
200.049 47
201.058 180
203.037 50
211.043 70
217.053 23
219.044 16
227.036 13
228.045 72
229.053 372
230.056 16
232.040 14
239.036 32
245.049 40
257.053 47
285.041 25

Name: Perrottetin E 1
Synon: Perrottetin E
Synon: 4-[2-(3-hydroxyphenyl)ethyl]-2-[4-[2-(3-hydroxyphenyl)ethyl]phenoxy]phenol
DB#: MSBNK-IPB_Halle-PB011101
InChIKey: OCZHVLYTYFWOAX-UHFFFAOYSA-N
InChI: InChI=1S/C28H26O4/c29-24-5-1-3-21(17-24)8-7-20-11-14-26(15-12-20)32-28-19-23(13-16-27(28)31)10-9-22-4-2-6-25(30)18-22/h1-6,11-19,29-31H,7-10H2
SMILES: C1=CC(=CC(=C1)O)CCC2=CC=C(C=C2)OC3=C(C=CC(=C3)CCC4=CC(=CC=C4)O)O
Precursor_type: [M+H]+
Spectrum_type: MS2
PrecursorMZ: 427.1904
Instrument_type: LC-ESI-QTOF
Instrument: Bruker MicrOTOF-Q
Ion_mode: POSITIVE
Collision_energy: 29.53928
Formula: C28H26O4
MW: 426
ExactMass: 426.183
Comments: Parent=427.1904
Splash: splash10-01b9-0369000000-bd24161f857e125ab08d
Num Peaks: 37
121.06 308
122.06 40
181.06 9
182.08 8
184.07 13
193.07 15
194.07 11
195.08 11
197.06 25
199.07 92
200.08 37
203.08 11
207.08 17
210.06 18
211.07 239
212.08 55
213.09 112
223.08 10
224.08 16
225.09 336
226.1 56
227.11 11
239.11 104
240.11 14
259.11 6
299.11 6
301.12 59
302.13 31
307.13 10
317.12 40
319.13 999
320.14 269
321.14 33
333.15 76
334.15 23
439.15 27
440.15 9

Name: 2,15-dioxapentacyclo[22.2.2.13,7.110,14.016,21]triaconta-1(26),3(30),4,6,10(29),11,13,16(21),17,19,24,27-dodecaene-4,5,8,17-tetrol 2
Synon: NJNMMLUSUMUVMX-UHFFFAOYSA-N
Synon: 2,15-dioxapentacyclo[22.2.2.13,7.110,14.016,21]triaconta-1(26),3(30),4,6,10(29),11,13,16(21),17,19,24,27-dodecaene-4,5,8,17-tetrol
DB#: MSBNK-IPB_Halle-PB010701
InChIKey: NJNMMLUSUMUVMX-UHFFFAOYSA-N
InChI: InChI=1S/C28H24O6/c29-23-6-2-4-19-10-7-17-8-11-21(12-9-17)33-26-16-20(15-25(31)27(26)32)24(30)14-18-3-1-5-22(13-18)34-28(19)23/h1-6,8-9,11-13,15-16,24,29-32H,7,10,14H2
SMILES: C1CC2=C(C(=CC=C2)O)OC3=CC=CC(=C3)CC(C4=CC(=C(C(=C4)O)O)OC5=CC=C1C=C5)O
Precursor_type: [M+H]+
Spectrum_type: MS2
PrecursorMZ: 457.1646
Instrument_type: LC-ESI-QTOF
Instrument: Bruker MicrOTOF-Q
Ion_mode: POSITIVE
Collision_energy: 31.787345
Formula: C28H24O6
MW: 456
ExactMass: 456.157
Comments: Parent=457.1646
Splash: splash10-004l-0191000000-3c118e6af5db0438274e
Num Peaks: 201
105.07 3
117.07 15
119.05 4
121.06 21
122.07 5
123.04 61
124.05 6
125.03 3
128.06 4
131.05 9
133.03 11
133.06 14
135.04 43
136.05 31
137.06 87
138.06 8
139.04 9
141.07 9
143.08 3
144.05 3
144.09 3
145.07 8
147.05 5
149.06 27
150.06 3
151.04 10
152.06 7
153.07 23
154.09 3
155.08 3
157.07 7
159.07 4
161.06 8
165.07 57
166.08 18
167.08 14
168.05 19
169.07 41
170.07 8
171.08 12
172.05 3
173.11 3
174.09 3
177.07 4
178.16 3
179.08 9
180.09 3
181.06 92
182.07 26
183 3
183.08 251
184.08 46
185.09 10
186.07 3
187.08 17
188.08 5
189.06 6
190.07 3
191.08 10
193.06 17
194.07 19
195.08 85
196.06 104
197.06 138
198.07 32
199.08 78
200.08 23
201.09 21
202.09 9
203.08 7
207.08 17
208.08 15
209.07 129
210.07 66
211.08 461
212.08 169
213.06 275
214.06 48
214.16 3
215.07 606
216.07 80
217.08 11
218.07 6
219.08 22
220.09 10
221.08 9
222.07 23
223.07 101
224.08 51
225.09 105
225.98 3
226.06 231
227.07 573
228 4
228.08 280
229.09 999
230.09 161
231.09 19
232.09 3
235.07 10
235.14 3
236.08 9
237.09 94
238.1 45
239.07 116
240.08 630
241.09 889
242.09 198
243.09 65
244.1 12
245.1 6
248.07 4
251.07 3
253.09 26
254.1 18
254.99 4
255.1 902
256.11 152
257.1 12
265.1 3
266.15 3
267.12 3
270.08 6
271.12 13
272.08 3
273.08 7
274.08 4
276.1 3
277.09 6
281.11 7
282.1 9
283.11 3
286.1 5
287.1 7
289.11 4
290.12 3
291.1 7
297.1 4
298.1 4
299.11 31
300.09 10
301.12 19
302.1 6
303.1 12
304.11 6
305.01 3
305.1 5
306.11 9
307.11 7
308.1 5
309.1 4
310.09 3
311.11 7
313.11 6
314.13 9
315.11 15
316.11 6
317.12 61
318.11 15
319.13 18
320.11 8
321.11 9
322.11 3
323.13 5
327.1 8
328.1 6
329.13 6
330.09 9
331.09 27
332.14 41
333.12 65
334.12 12
335.13 141
336.13 45
337.14 7
345.11 23
346.12 35
347.11 17
348.11 8
349.11 102
350.11 26
351.12 28
352.13 9
362.12 3
363.12 37
364.13 68
365.14 28
376.97 3
397.2 4
409.14 3
411.16 8
412.17 3
421.15 4
422.14 4
428.18 4
439.15 25
440.16 7
441.15 3
455.15 29
456.15 6
457.16 38

Name: Luteone diglucoside malonylated
DB#: MSBNK-IPB_Halle-PN000090
InChI: N/A
SMILES: N/A
Precursor_type: [M+H]+
Spectrum_type: MS2
PrecursorMZ: 765.225
Instrument_type: ESI-TOF
Instrument: micrOTOF-Q
Ion_mode: POSITIVE
Collision_energy: 15 eV
Formula: C35H40O19
MW: 764
ExactMass: 764.21637906
Comments: Parent=765.225
Splash: splash10-0uxr-0001259500-6e46f0c997b3ee80eb17
Num Peaks: 8
355.1197 241
461.1066 379
517.1725 472
547.1062 246
603.1694 999
604.1749 197
765.2178 528
766.2273 169

Name: Indole-3-carboxylic acid
Synon: 1H-indole-3-carboxylic acid
DB#: MSBNK-IPB_Halle-PB005785
InChIKey: KMAKOBLIOCQGJP-UHFFFAOYSA-N
InChI: InChI=1S/C9H7NO2/c11-9(12)7-5-10-8-4-2-1-3-6(7)8/h1-5,10H,(H,11,12)
SMILES: C1=CC=C2C(=C1)C(=CN2)C(=O)O
Precursor_type: [M+H]+
Spectrum_type: MS2
Instrument_type: LC-ESI-QTOF
Instrument: micrOTOF-Q
Ion_mode: POSITIVE
Collision_energy: 10 eV
Formula: C9H7NO2
MW: 161
ExactMass: 161.04768
Comments: Parent=-1
Splash: splash10-03xu-0900000000-3f9d7c7294f2ea5a6c2c
Num Peaks: 21
116.048 103
117.055 102
118.063 767
118.180 0
119.067 69
120.069 0
134.060 6
135.060 0
144.043 843
145.046 77
146.049 2
161.045 1
161.951 0
161.971 0
162.053 999
162.179 0
162.321 0
162.381 0
163.057 76
164.058 1
254.037 0

Name: 3-Acetylindole
Synon: 1-(1H-indol-3-yl)ethanone
DB#: MSBNK-IPB_Halle-PB000498
InChIKey: VUIMBZIZZFSQEE-UHFFFAOYSA-N
InChI: InChI=1S/C10H9NO/c1-7(12)9-6-11-10-5-3-2-4-8(9)10/h2-6,11H,1H3
SMILES: CC(=O)C1=CNC2=CC=CC=C21
Precursor_type: [M+H]+
Spectrum_type: MS2
Instrument_type: LC-ESI-QTOF
Instrument: API QSTAR Pulsar i
Ion_mode: POSITIVE
Collision_energy: 40 eV
Formula: C10H9NO
MW: 159
ExactMass: 159.06841
Comments: Parent=-1
Splash: splash10-0006-9100000000-bd1e0b33cdd04972d957
Num Peaks: 8
43.019 999
65.041 6
89.039 2
90.048 9
91.056 244
115.057 2
117.060 53
118.067 138

Name: Luteone diglucoside malonylated
DB#: MSBNK-IPB_Halle-PN000091
InChI: N/A
SMILES: N/A
Precursor_type: [M-H]-
Spectrum_type: MS2
PrecursorMZ: 719.22
Instrument_type: ESI-TOF
Instrument: micrOTOF-Q
Ion_mode: NEGATIVE
Collision_energy: 25 eV
Formula: C35H40O19
MW: 764
ExactMass: 764.21637906
Comments: Parent=719.22
Splash: splash10-014i-0000090000-a116aeda1b48587956cd
Num Peaks: 1
515.1644 999

Name: Kaempferol
Synon: 3,5,7-trihydroxy-2-(4-hydroxyphenyl)chromen-4-one
DB#: MSBNK-IPB_Halle-PB004121
InChIKey: IYRMWMYZSQPJKC-UHFFFAOYSA-N
InChI: InChI=1S/C15H10O6/c16-8-3-1-7(2-4-8)15-14(20)13(19)12-10(18)5-9(17)6-11(12)21-15/h1-6,16-18,20H
SMILES: C1=CC(=CC=C1C2=C(C(=O)C3=C(C=C(C=C3O2)O)O)O)O
Precursor_type: [M+H]+
Spectrum_type: MS2
Instrument_type: LC-ESI-QQ
Instrument: TSQ QUANTUM AM
Ion_mode: POSITIVE
Collision_energy: 25 eV
Formula: C15H10O6
MW: 286
ExactMass: 286.04774
Comments: Parent=-1
Splash: splash10-000i-0290000000-8aaa90bfd2ced6cf418a
Num Peaks: 54
69.000 1
79.000 0
81.000 0
93.000 2
103.000 0
105.000 3
107.000 4
109.000 2
111.000 11
121.000 43
127.000 0
129.000 0
133.000 10
135.000 1
136.000 0
137.000 18
141.000 1
145.000 6
147.000 12
149.000 0
153.000 90
157.000 10
161.000 3
165.000 82
167.000 0
169.000 0
171.000 7
173.000 0
175.000 2
177.000 0
183.000 0
185.000 13
189.000 3
197.000 5
199.000 1
201.000 1
203.000 5
205.000 0
213.000 53
215.000 0
216.000 0
217.000 1
223.000 0
228.000 0
229.000 2
231.000 23
241.000 32
243.000 4
245.000 1
258.000 44
259.000 12
269.000 4
286.000 0
287.000 999

Name: Kinetin
Synon: N-(furan-2-ylmethyl)-7H-purin-6-amine
DB#: MSBNK-IPB_Halle-PB005861
InChIKey: QANMHLXAZMSUEX-UHFFFAOYSA-N
InChI: InChI=1S/C10H9N5O/c1-2-7(16-3-1)4-11-9-8-10(13-5-12-8)15-6-14-9/h1-3,5-6H,4H2,(H2,11,12,13,14,15)
SMILES: C1=COC(=C1)CNC2=NC=NC3=C2NC=N3
Precursor_type: [M+H]+
Spectrum_type: MS2
Instrument_type: LC-ESI-QTOF
Instrument: micrOTOF-Q
Ion_mode: POSITIVE
Collision_energy: 10 eV
Formula: C10H9N5O
MW: 215
ExactMass: 215.08071
Comments: Parent=-1
Splash: splash10-014i-0290000000-b940cd29b82e850fbde2
Num Peaks: 11
136.060 6
148.061 211
149.062 12
173.068 13
174.072 0
188.091 40
189.094 2
198.076 2
216.086 999
217.089 95
218.091 2

Name: Safranin
Synon: 3,7-dimethyl-10-phenylphenazin-10-ium-2,8-diamine
DB#: MSBNK-IPB_Halle-PB005961
InChIKey: WULISCVZERSMML-UHFFFAOYSA-O
InChI: InChI=1S/C20H18N4/c1-12-8-17-19(10-15(12)21)24(14-6-4-3-5-7-14)20-11-16(22)13(2)9-18(20)23-17/h3-11H,1-2H3,(H3,21,22)/p+1
SMILES: CC1=CC2=C(C=C1N)[N+](=C3C=C(C(=CC3=N2)C)N)C4=CC=CC=C4
Precursor_type: [M]+
Spectrum_type: MS2
Instrument_type: LC-ESI-QTOF
Instrument: micrOTOF-Q
Ion_mode: POSITIVE
Collision_energy: 10 eV
Formula: [C20H19N4]+
MW: 315
ExactMass: 315.16097
Comments: Parent=-1
Splash: splash10-014i-0009000000-54734d2bb7494559e436
Num Peaks: 4
315.156 999
315.585 0
316.159 174
317.160 1

Name: Isoleucine
Synon: 2-amino-3-methylpentanoic acid
DB#: MSBNK-IPB_Halle-PB000396
InChIKey: AGPKZVBTJJNPAG-UHFFFAOYSA-N
InChI: InChI=1S/C6H13NO2/c1-3-4(2)5(7)6(8)9/h4-5H,3,7H2,1-2H3,(H,8,9)
SMILES: CCC(C)C(C(=O)O)N
Precursor_type: [M+H]+
Spectrum_type: MS2
Instrument_type: LC-ESI-QTOF
Instrument: API QSTAR Pulsar i
Ion_mode: POSITIVE
Collision_energy: 15 eV
Formula: C6H13NO2
MW: 131
ExactMass: 131.09463
Comments: Parent=-1
Splash: splash10-000i-9100000000-86db4653452734c7ee02
Num Peaks: 3
69.073 25
86.099 999
132.106 113

Name: N-Acetylindole
Synon: 1-indol-1-ylethanone
DB#: MSBNK-IPB_Halle-PB000494
InChIKey: UUCUQJHYUPXDHN-UHFFFAOYSA-N
InChI: InChI=1S/C10H9NO/c1-8(12)11-7-6-9-4-2-3-5-10(9)11/h2-7H,1H3
SMILES: CC(=O)N1C=CC2=CC=CC=C21
Precursor_type: [M+H]+
Spectrum_type: MS2
Instrument_type: LC-ESI-QTOF
Instrument: API QSTAR Pulsar i
Ion_mode: POSITIVE
Collision_energy: 45 eV
Formula: C10H9NO
MW: 159
ExactMass: 159.06841
Comments: Parent=-1
Splash: splash10-0006-9100000000-7940d2df1f150febbc19
Num Peaks: 11
43.018 456
63.021 1
65.040 103
89.040 9
90.046 23
91.054 999
92.050 1
116.050 0
117.057 135
118.067 181
144.038 0

Name: Indole-3-carbinol
Synon: H-indol-3-ylmethanol
DB#: MSBNK-IPB_Halle-PB000516
InChIKey: IVYPNXXAYMYVSP-UHFFFAOYSA-N
InChI: InChI=1S/C9H9NO/c11-6-7-5-10-9-4-2-1-3-8(7)9/h1-5,10-11H,6H2
SMILES: C1=CC=C2C(=C1)C(=CN2)CO
Precursor_type: [M+H-H2O]+
Spectrum_type: MS2
Instrument_type: LC-ESI-QTOF
Instrument: API QSTAR Pulsar i
Ion_mode: POSITIVE
Collision_energy: 30 eV
Formula: C9H9NO
MW: 147
ExactMass: 147.06841
Comments: Parent=-1
Splash: splash10-0fai-3900000000-456eeacfdc17f124472f
Num Peaks: 11
51.027 8
77.038 580
95.050 91
101.040 3
102.045 29
103.056 664
104.046 4
105.047 28
128.048 96
129.047 6
130.063 999

Name: Apigenin O-glucoside malonylated
DB#: MSBNK-IPB_Halle-PN000070
InChI: N/A
SMILES: N/A
Precursor_type: [M+H]+
Spectrum_type: MS2
PrecursorMZ: 519.115
Instrument_type: ESI-TOF
Instrument: micrOTOF-Q
Ion_mode: POSITIVE
Collision_energy: 15 eV
Formula: C24H22O13
MW: 518
ExactMass: 518.106040764
Comments: Parent=519.115
Splash: splash10-00di-0090000000-d12f3260aed0ecccd999
Num Peaks: 7
127.0401 6
271.0611 999
272.0649 116
273.0662 22
433.1112 11
519.1166 22
520.1175 6

Name: Kaempferol
Synon: 3,5,7-trihydroxy-2-(4-hydroxyphenyl)chromen-4-one
DB#: MSBNK-IPB_Halle-PB005706
InChIKey: IYRMWMYZSQPJKC-UHFFFAOYSA-N
InChI: InChI=1S/C15H10O6/c16-8-3-1-7(2-4-8)15-14(20)13(19)12-10(18)5-9(17)6-11(12)21-15/h1-6,16-18,20H
SMILES: C1=CC(=CC=C1C2=C(C(=O)C3=C(C=C(C=C3O2)O)O)O)O
Precursor_type: [M+H]+
Spectrum_type: MS2
Instrument_type: LC-ESI-QTOF
Instrument: micrOTOF-Q
Ion_mode: POSITIVE
Collision_energy: 30 eV
Formula: C15H10O6
MW: 286
ExactMass: 286.04774
Comments: Parent=-1
Splash: splash10-0f79-0690000000-4ea7ac373b7544205bba
Num Peaks: 219
107.053 4
115.055 6
115.075 0
117.028 2
117.069 3
117.085 0
118.037 0
119.046 10
121.027 126
121.071 0
122.031 7
123.036 1
124.014 2
125.016 0
127.049 17
128.060 35
129.036 2
129.066 33
130.039 1
130.081 0
131.048 8
132.076 1
133.027 24
134.031 6
135.043 9
135.065 1
135.084 0
136.011 3
136.040 1
137.022 83
137.039 1
138.025 15
139.052 24
140.057 0
141.069 17
142.036 1
142.073 4
143.045 1
143.567 0
144.049 5
145.024 3
145.063 54
145.171 1
145.631 0
146.034 2
146.063 0
146.623 0
147.042 96
148.045 6
149.021 5
153.017 899
153.109 0
154.019 45
154.064 0
155.027 0
155.045 6
155.083 0
156.052 4
156.071 0
157.063 194
157.550 0
158.065 18
159.074 0
160.050 5
161.057 58
162.018 0
162.057 0
162.398 0
163.034 5
165.017 185
165.117 0
166.019 15
167.022 1
167.047 4
168.052 9
169.068 3
170.067 2
171.041 60
171.263 0
172.041 3
173.016 0
173.061 3
174.023 1
175.038 7
175.077 5
175.146 0
176.032 1
177.012 0
177.049 2
179.025 3
179.045 0
181.008 6
181.091 0
183.030 53
183.184 0
184.009 0
184.045 19
184.997 0
185.056 91
186.055 17
187.064 2
188.038 0
189.049 10
191.027 1
193.015 4
194.869 0
195.037 7
195.356 1
196.052 0
197.053 11
198.063 1
198.925 2
199.037 3
199.096 0
200.046 0
201.051 6
201.094 0
202.058 10
203.028 2
203.067 30
204.038 3
205.038 0
207.025 3
208.038 0
210.877 0
212.042 30
213.051 484
213.197 0
214.057 62
215.028 2
215.062 3
216.038 66
217.043 18
217.079 0
218.022 5
218.052 4
219.037 1
219.060 6
219.121 0
220.021 1
221.050 0
223.029 5
224.043 8
225.054 5
226.011 0
227.464 0
229.047 167
230.052 32
230.997 1
231.061 141
231.158 0
232.029 4
232.063 3
232.087 1
234.945 10
235.055 4
236.945 3
240.040 13
241.045 170
241.117 0
241.989 0
242.052 40
242.146 2
243.063 18
244.036 7
244.920 0
245.041 21
245.120 0
251.032 1
252.035 5
253.044 0
253.931 2
256.050 0
257.040 35
257.135 1
258.048 368
258.172 2
258.202 1
258.880 0
259.055 132
259.155 1
260.059 11
261.871 1
263.048 4
263.897 0
263.928 1
264.057 0
269.040 63
269.117 1
269.144 0
270.014 0
270.046 10
271.043 0
272.037 2
272.065 0
285.034 25
286.042 24
286.115 0
287.050 999
287.142 7
287.177 1
287.988 0
288.053 145
289.075 1
302.014 0
307.009 0
323.055 0
340.086 0
352.036 0
358.695 0
361.007 0
364.186 0
385.913 0
488.372 0
503.868 0
511.638 0
515.157 0
534.485 0
620.324 0

Name: Luteolin
Synon: 5,7,3',4'-tetrahydroxy-flavone
DB#: MSBNK-IPB_Halle-PB000742
InChIKey: IQPNAANSBPBGFQ-UHFFFAOYSA-N
InChI: InChI=1S/C15H10O6/c16-8-4-11(19)15-12(20)6-13(21-14(15)5-8)7-1-2-9(17)10(18)3-7/h1-6,16-19H
SMILES: C1=CC(=C(C=C1C2=CC(=O)C3=C(C=C(C=C3O2)O)O)O)O
Precursor_type: [M+H]+
Spectrum_type: MS2
Instrument_type: LC-ESI-QTOF
Instrument: API QSTAR Pulsar i
Ion_mode: POSITIVE
Collision_energy: 25 eV
Formula: C15H10O6
MW: 286
ExactMass: 286.04774
Comments: Parent=-1
Splash: splash10-000i-0090000000-32d872624745be3abab3
Num Peaks: 3
153.020 9
287.056 999
288.062 45

Name: Apigenin O-glucoside malonylated
DB#: MSBNK-IPB_Halle-PN000072
InChI: N/A
SMILES: N/A
Precursor_type: [M-H]-
Spectrum_type: MS2
PrecursorMZ: 473.105
Instrument_type: ESI-TOF
Instrument: micrOTOF-Q
Ion_mode: NEGATIVE
Collision_energy: 25 eV
Formula: C24H22O13
MW: 518
ExactMass: 518.106040764
Comments: Parent=473.105
Splash: splash10-014i-0090600000-f76a24a3d892d5762bd8
Num Peaks: 4
268.037 356
269.046 999
434.808 562
473.113 399

Name: Hesperidin methyl chalcone
Synon: (E)-3-(3-hydroxy-4-methoxyphenyl)-1-[2-hydroxy-6-methoxy-4-[(2S,3R,4S,5S,6R)-3,4,5-trihydroxy-6-[[(2R,3R,4R,5R,6S)-3,4,5-trihydroxy-6-methyloxan-2-yl]oxymethyl]oxan-2-yl]oxyphenyl]prop-2-en-1-one
DB#: MSBNK-IPB_Halle-PB006242
InChIKey: FDHNLHLOJLLXDH-JIYHLSBYSA-N
InChI: InChI=1S/C29H36O15/c1-12-22(33)24(35)26(37)28(42-12)41-11-20-23(34)25(36)27(38)29(44-20)43-14-9-17(32)21(19(10-14)40-3)15(30)6-4-13-5-7-18(39-2)16(31)8-13/h4-10,12,20,22-29,31-38H,11H2,1-3H3/b6-4+/t12-,20+,22-,23+,24+,25-,26+,27+,28+,29+/m0/s1
SMILES: C[C@H]1[C@@H]([C@H]([C@H]([C@@H](O1)OC[C@@H]2[C@H]([C@@H]([C@H]([C@@H](O2)OC3=CC(=C(C(=C3)OC)C(=O)/C=C/C4=CC(=C(C=C4)OC)O)O)O)O)O)O)O)O
Precursor_type: [M+H]+
Spectrum_type: MS2
Instrument_type: LC-ESI-QTOF
Instrument: micrOTOF-Q
Ion_mode: POSITIVE
Collision_energy: 15 eV
Formula: C29H36O15
MW: 624
ExactMass: 624.20542
Comments: Parent=-1
Splash: splash10-014i-0009200000-58b6a1c4b38895e789aa
Num Peaks: 49
129.054 4
147.067 0
153.018 2
179.033 1
191.069 1
195.027 4
219.027 1
245.040 1
255.086 0
263.053 18
264.055 0
281.063 37
282.068 2
297.059 0
299.076 4
301.105 6
302.108 2
309.116 0
315.084 4
315.118 0
316.088 1
316.878 0
317.100 999
317.513 0
317.772 0
318.103 134
319.105 4
329.099 3
341.099 5
359.109 59
360.113 9
383.109 19
384.112 3
409.124 4
410.132 0
425.111 1
427.136 52
428.140 8
443.132 1
445.145 54
446.149 8
461.139 8
462.148 0
463.156 58
464.159 11
477.133 2
478.140 3
479.150 58
480.154 9

Name: Genistein 4',7-O-diglucoside dimalonylated
DB#: MSBNK-IPB_Halle-PN000042
InChI: N/A
SMILES: N/A
Precursor_type: [M+H]+
Spectrum_type: MS2
PrecursorMZ: 767.168
Instrument_type: ESI-TOF
Instrument: micrOTOF-Q
Ion_mode: POSITIVE
Collision_energy: 15 eV
Formula: C33H34O21
MW: 766
ExactMass: 766.1592581079999
Comments: Parent=767.168
Splash: splash10-014i-0010090400-e0dd363a250d6e68b269
Num Peaks: 6
271.0609 177
519.1165 999
520.1147 229
521.1138 66
767.1696 528
768.1718 129

Name: Chrysoeriol O-glucosylglucoside malonylated
DB#: MSBNK-IPB_Halle-PN000079
InChI: N/A
SMILES: N/A
Precursor_type: [M+H]+
Spectrum_type: MS2
PrecursorMZ: 711.436
Instrument_type: ESI-TOF
Instrument: micrOTOF-Q
Ion_mode: POSITIVE
Collision_energy: 15 eV
Formula: C31H34O19
MW: 710
ExactMass: 710.169428868
Comments: Parent=711.436
Splash: splash10-0w29-0009030500-15419ad1615e0bafe68b
Num Peaks: 9
301.0715 999
302.0731 87
549.1271 309
550.1214 83
555.0970 70
625.1744 47
711.1729 457
712.1760 149
713.1821 45

Name: Sinapine
Synon: 2-[(E)-3-(4-hydroxy-3,5-dimethoxyphenyl)prop-2-enoyl]oxyethyl-trimethylazanium
DB#: MSBNK-IPB_Halle-PB006006
InChIKey: HUJXHFRXWWGYQH-UHFFFAOYSA-O
InChI: InChI=1S/C16H23NO5/c1-17(2,3)8-9-22-15(18)7-6-12-10-13(20-4)16(19)14(11-12)21-5/h6-7,10-11H,8-9H2,1-5H3/p+1
SMILES: C[N+](C)(C)CCOC(=O)C=CC1=CC(=C(C(=C1)OC)O)OC
Precursor_type: [M]+
Spectrum_type: MS2
PrecursorMZ: 310.16545
Instrument_type: LC-ESI-QTOF
Instrument: micrOTOF-Q
Ion_mode: POSITIVE
Collision_energy: 20 eV
Formula: [C16H24NO5]+
MW: 310
ExactMass: 310.16545
Comments: Parent=310.16545
Splash: splash10-0udi-0090000000-c860008ae94305bdbb56
Num Peaks: 18
119.047 0
147.042 9
151.036 0
164.044 1
175.036 46
176.039 2
179.066 0
207.062 67
208.063 6
218.052 0
235.055 2
236.064 19
237.067 1
250.891 0
251.087 999
251.376 0
252.090 113
253.091 1

Name: Catechin
Synon: (2R,3S)-2-(3,4-dihydroxyphenyl)chroman-3,5,7-triol
DB#: MSBNK-IPB_Halle-PB002429
InChIKey: PFTAWBLQPZVEMU-DZGCQCFKSA-N
InChI: InChI=1S/C15H14O6/c16-8-4-11(18)9-6-13(20)15(21-14(9)5-8)7-1-2-10(17)12(19)3-7/h1-5,13,15-20H,6H2/t13-,15+/m0/s1
SMILES: C1[C@@H]([C@H](OC2=CC(=CC(=C21)O)O)C3=CC(=C(C=C3)O)O)O
Precursor_type: [M-H]-
Spectrum_type: MS2
Instrument_type: LC-ESI-QTOF
Instrument: API QSTAR Pulsar i
Ion_mode: NEGATIVE
Collision_energy: 15 eV
Formula: C15H14O6
MW: 290
ExactMass: 290.07904
Comments: Parent=-1
Splash: splash10-000i-0090000000-466d29d8274d012f2ea3
Num Peaks: 8
109.031 8
125.022 19
137.024 13
179.032 26
203.067 18
205.047 31
245.083 140
289.066 999

Name: Phenylalanine
Synon: (2S)-2-amino-3-phenylpropanoic acid
DB#: MSBNK-IPB_Halle-PB006064
InChIKey: COLNVLDHVKWLRT-QMMMGPOBSA-N
InChI: InChI=1S/C9H11NO2/c10-8(9(11)12)6-7-4-2-1-3-5-7/h1-5,8H,6,10H2,(H,11,12)/t8-/m0/s1
SMILES: C1=CC=C(C=C1)C[C@@H](C(=O)O)N
Precursor_type: [M+H]+
Spectrum_type: MS2
Instrument_type: LC-ESI-QTOF
Instrument: micrOTOF-Q
Ion_mode: POSITIVE
Collision_energy: 10 eV
Formula: C9H11NO2
MW: 165
ExactMass: 165.07898
Comments: Parent=-1
Splash: splash10-00di-0900000000-99b1e46c9ca3032be112
Num Peaks: 12
103.052 4
118.064 6
119.071 3
120.079 999
121.082 80
122.086 0
131.048 38
132.051 2
149.058 15
150.062 0
166.084 74
167.087 5

Name: Tyrosine
Synon: 2-amino-3-(4-hydroxyphenyl)propanoic acid
DB#: MSBNK-IPB_Halle-PB000414
InChIKey: OUYCCCASQSFEME-UHFFFAOYSA-N
InChI: InChI=1S/C9H11NO3/c10-8(9(12)13)5-6-1-3-7(11)4-2-6/h1-4,8,11H,5,10H2,(H,12,13)
SMILES: C1=CC(=CC=C1CC(C(=O)O)N)O
Precursor_type: [M+H]+
Spectrum_type: MS2
Instrument_type: LC-ESI-QTOF
Instrument: API QSTAR Pulsar i
Ion_mode: POSITIVE
Collision_energy: 40 eV
Formula: C9H11NO3
MW: 181
ExactMass: 181.07389
Comments: Parent=-1
Splash: splash10-0006-9200000000-a6ce35121db3a9efce0a
Num Peaks: 26
43.019 2
51.025 3
55.020 1
65.039 52
67.055 10
77.039 199
78.043 2
79.055 8
81.070 8
91.054 999
92.057 16
93.062 6
94.044 9
95.050 371
96.054 4
103.056 16
105.046 10
107.049 130
108.070 5
109.066 15
117.060 8
118.066 18
119.052 152
120.057 5
123.043 62
136.076 29

Name: 4-Hydroxybenzoylcholine
Synon: 2-(4-hydroxybenzoyl)oxyethyl-trimethylazanium
DB#: MSBNK-IPB_Halle-PB000307
InChIKey: BAPAICNRGIBFJT-UHFFFAOYSA-O
InChI: InChI=1S/C12H17NO3/c1-13(2,3)8-9-16-12(15)10-4-6-11(14)7-5-10/h4-7H,8-9H2,1-3H3/p+1
SMILES: C[N+](C)(C)CCOC(=O)C1=CC=C(C=C1)O
Precursor_type: [M]+
Spectrum_type: MS2
Instrument_type: LC-ESI-QTOF
Instrument: API QSTAR Pulsar i
Ion_mode: POSITIVE
Collision_energy: 25 eV
Formula: [C12H18NO3]+
MW: 224
ExactMass: 224.12867
Comments: Parent=-1
Splash: splash10-014i-0900000000-e54b6698097ec9ced95b
Num Peaks: 2
121.029 178
165.055 999

Name: Thebaine
Synon: Morphinan, 6,7,8,14-tetradehydro-4,5-epoxy-3,6-dimethoxy-17-methyl-, (5.alpha.)-
DB#: MSBNK-IPB_Halle-PB003643
InChIKey: FQXXSQDCDRQNQE-UHFFFAOYSA-N
InChI: InChI=1S/C19H21NO3/c1-20-9-8-19-12-5-7-15(22-3)18(19)23-17-14(21-2)6-4-11(16(17)19)10-13(12)20/h4-7,13,18H,8-10H2,1-3H3
SMILES: CN1CCC23C4C(=CC=C2C1CC5=C3C(=C(C=C5)OC)O4)OC
Precursor_type: [M+H]+
Spectrum_type: MS2
Instrument_type: LC-ESI-QQ
Instrument: TSQ 7000
Ion_mode: POSITIVE
Collision_energy: 35 eV
Formula: C19H21NO3
MW: 311
ExactMass: 311.15214
Comments: Parent=-1
Splash: splash10-0a4i-7290000000-2c44d64ff75d058c2ac8
Num Peaks: 99
30.000 9
31.000 0
42.000 0
43.000 7
44.000 23
55.000 0
56.000 11
57.000 1
58.000 999
59.000 0
152.000 3
153.000 1
165.000 13
166.000 2
167.000 10
169.000 1
176.000 2
177.000 30
178.000 18
179.000 6
180.000 9
181.000 6
182.000 3
183.000 1
184.000 2
189.000 19
190.000 17
191.000 15
192.000 3
193.000 19
194.000 12
195.000 64
196.000 6
197.000 12
198.000 1
199.000 0
201.000 0
202.000 6
203.000 8
204.000 0
205.000 32
206.000 32
207.000 12
208.000 5
209.000 26
210.000 16
211.000 10
212.000 11
213.000 2
216.000 0
217.000 21
218.000 84
219.000 12
220.000 6
221.000 100
222.000 16
223.000 52
224.000 13
225.000 17
226.000 2
227.000 8
228.000 0
231.000 1
232.000 3
233.000 17
234.000 54
235.000 22
236.000 48
237.000 20
238.000 12
239.000 41
240.000 20
241.000 3
242.000 0
246.000 0
247.000 0
248.000 9
249.000 30
250.000 11
251.000 298
252.000 5
253.000 8
254.000 16
255.000 21
256.000 0
263.000 0
264.000 5
265.000 12
266.000 62
267.000 2
268.000 5
269.000 1
280.000 8
281.000 24
282.000 7
296.000 6
297.000 7
312.000 21
313.000 0

Name: 5-Hydroxytryptophan
Synon: 2-amino-3-(5-hydroxy-1H-indol-3-yl)propanoic acid
DB#: MSBNK-IPB_Halle-PB001403
InChIKey: LDCYZAJDBXYCGN-UHFFFAOYSA-N
InChI: InChI=1S/C11H12N2O3/c12-9(11(15)16)3-6-5-13-10-2-1-7(14)4-8(6)10/h1-2,4-5,9,13-14H,3,12H2,(H,15,16)
SMILES: C1=CC2=C(C=C1O)C(=CN2)CC(C(=O)O)N
Precursor_type: [M+H]+
Spectrum_type: MS2
Instrument_type: LC-ESI-QTOF
Instrument: API QSTAR Pulsar i
Ion_mode: POSITIVE
Collision_energy: 40 eV
Formula: C11H12N2O3
MW: 220
ExactMass: 220.08479
Comments: Parent=-1
Splash: splash10-001i-0900000000-b656dc85b8aff47fea96
Num Peaks: 66
41.038 17
43.020 14
43.049 6
55.052 12
57.072 10
59.042 3
65.031 3
67.045 11
69.068 10
71.055 2
73.037 7
74.022 24
77.038 7
79.054 25
81.091 3
83.091 1
89.039 6
91.047 12
92.058 4
93.056 4
95.095 2
103.054 83
104.052 10
105.049 5
105.067 35
106.064 207
107.048 109
108.046 6
109.114 1
114.044 2
115.053 114
116.049 77
117.055 83
118.066 16
119.088 4
120.077 16
121.005 3
121.021 9
121.063 8
123.071 4
128.063 5
129.063 2
130.066 127
131.054 245
132.078 56
133.054 144
133.944 5
134.062 999
135.065 26
140.044 13
141.057 8
142.060 21
143.066 21
144.052 32
145.060 9
146.055 159
147.060 11
148.070 72
157.038 3
158.057 178
159.066 320
160.076 82
161.083 7
162.055 124
175.081 8
186.053 20

Name: Aloin
Synon: 1,8-dihydroxy-3-(hydroxymethyl)-10-[3,4,5-trihydroxy-6-(hydroxymethyl)oxan-2-yl]-10H-anthracen-9-one
DB#: MSBNK-IPB_Halle-PB005501
InChIKey: AFHJQYHRLPMKHU-UHFFFAOYSA-N
InChI: InChI=1S/C21H22O9/c22-6-8-4-10-14(21-20(29)19(28)17(26)13(7-23)30-21)9-2-1-3-11(24)15(9)18(27)16(10)12(25)5-8/h1-5,13-14,17,19-26,28-29H,6-7H2
SMILES: C1=CC2=C(C(=C1)O)C(=O)C3=C(C=C(C=C3C2C4C(C(C(C(O4)CO)O)O)O)CO)O
Precursor_type: [M+H]+
Spectrum_type: MS2
Instrument_type: LC-ESI-QTOF
Instrument: micrOTOF-Q
Ion_mode: POSITIVE
Collision_energy: 10 eV
Formula: C21H22O9
MW: 418
ExactMass: 418.12638
Comments: Parent=-1
Splash: splash10-000i-0090000000-b2c1e88e2f0e1c173d2b
Num Peaks: 46
168.045 0
211.074 110
212.078 11
213.078 0
215.173 0
221.058 1
224.124 0
227.698 0
228.072 0
238.822 0
238.855 1
239.069 999
239.188 1
239.394 0
240.072 141
241.074 2
255.062 7
256.069 5
257.079 274
258.082 29
262.458 0
262.533 0
263.073 3
265.090 0
269.082 3
277.084 0
281.080 6
285.076 2
293.079 1
297.068 1
305.075 2
307.072 0
312.080 0
350.890 1
354.104 0
365.104 5
382.102 0
383.113 25
384.117 2
401.123 33
402.124 10
418.129 0
419.132 66
420.141 9
621.579 0
706.565 0

Name: Indoleacetic acid
Synon: 2-(1H-indol-3-yl)acetic acid
DB#: MSBNK-IPB_Halle-PB000513
InChIKey: SEOVTRFCIGRIMH-UHFFFAOYSA-N
InChI: InChI=1S/C10H9NO2/c12-10(13)5-7-6-11-9-4-2-1-3-8(7)9/h1-4,6,11H,5H2,(H,12,13)
SMILES: C1=CC=C2C(=C1)C(=CN2)CC(=O)O
Precursor_type: [M+H]+
Spectrum_type: MS2
Instrument_type: LC-ESI-QTOF
Instrument: API QSTAR Pulsar i
Ion_mode: POSITIVE
Collision_energy: 40 eV
Formula: C10H9NO2
MW: 175
ExactMass: 175.06333
Comments: Parent=-1
Splash: splash10-0fsi-2900000000-be6e948ec5c1c4c29ce3
Num Peaks: 64
39.022 0
41.038 0
43.015 0
45.032 0
51.018 0
52.015 1
53.040 0
55.018 2
55.056 7
59.048 0
62.930 15
63.020 14
64.030 0
64.928 11
65.038 83
66.046 12
67.053 4
71.049 2
76.029 100
77.037 198
78.044 62
79.040 91
80.054 1
81.076 1
89.038 471
90.042 82
91.053 102
92.052 6
93.030 8
94.039 2
95.049 28
97.056 0
98.987 5
101.037 0
102.045 13
103.055 504
104.046 530
105.057 654
106.058 15
111.048 0
114.037 1
115.042 38
116.049 358
117.057 441
118.066 18
119.068 0
120.081 3
121.065 62
128.046 34
129.048 2
130.063 999
131.068 17
132.041 115
133.051 483
134.059 28
143.030 6
144.047 26
146.059 8
146.087 0
147.068 12
148.074 10
149.014 0
158.059 1
161.050 5

Name: Kaempferol
Synon: 3,5,7-trihydroxy-2-(4-hydroxyphenyl)chromen-4-one
DB#: MSBNK-IPB_Halle-PB000164
InChIKey: IYRMWMYZSQPJKC-UHFFFAOYSA-N
InChI: InChI=1S/C15H10O6/c16-8-3-1-7(2-4-8)15-14(20)13(19)12-10(18)5-9(17)6-11(12)21-15/h1-6,16-18,20H
SMILES: C1=CC(=CC=C1C2=C(C(=O)C3=C(C=C(C=C3O2)O)O)O)O
Precursor_type: [M+H]+
Spectrum_type: MS2
Instrument_type: LC-ESI-QTOF
Instrument: API QSTAR Pulsar i
Ion_mode: POSITIVE
Collision_energy: 15 eV
Formula: C15H10O6
MW: 286
ExactMass: 286.04774
Comments: Parent=-1
Splash: splash10-000i-0090000000-160d6352ced9323d8a12
Num Peaks: 2
287.055 999
288.061 29

Name: Galangin
Synon: Norizalpinin, 3,5,7-trihydroxyflavone
DB#: MSBNK-IPB_Halle-PN000121
InChIKey: VCCRNZQBSJXYJD-UHFFFAOYSA-N
InChI: InChI=1S/C15H10O5/c16-9-6-10(17)12-11(7-9)20-15(14(19)13(12)18)8-4-2-1-3-5-8/h1-7,16-17,19H
SMILES: OC1=CC(O)=C2C(=O)C(O)=C(OC2(=C1))C=3C=CC=CC=3
Precursor_type: [M-H]-
Spectrum_type: MS2
PrecursorMZ: 269.043
Instrument_type: ESI-TOF
Instrument: micrOTOF-Q
Ion_mode: NEGATIVE
Collision_energy: 25 eV
Formula: C15H10O5
MW: 270
ExactMass: 270.05282342
Comments: Parent=269.043
Splash: splash10-01bd-0930000000-402ad7ca923f0fcfad1c
Num Peaks: 26
101.041 244
108.020 738
115.055 350
117.035 346
129.036 183
139.054 313
141.065 359
143.049 992
145.033 533
154.039 188
155.048 298
167.046 628
169.064 625
171.043 999
182.033 191
195.042 839
197.057 263
199.035 188
211.038 834
212.043 209
213.054 299
223.036 510
227.033 235
239.035 350
252.039 292
269.042 526

Name: Spermine
Synon: N,N'-bis(3-aminopropyl)butane-1,4-diamine
DB#: MSBNK-IPB_Halle-PB000488
InChIKey: PFNFFQXMRSDOHW-UHFFFAOYSA-N
InChI: InChI=1S/C10H26N4/c11-5-3-9-13-7-1-2-8-14-10-4-6-12/h13-14H,1-12H2
SMILES: C(CCNCCCN)CNCCCN
Precursor_type: [M+H]+
Spectrum_type: MS2
Instrument_type: LC-ESI-QTOF
Instrument: API QSTAR Pulsar i
Ion_mode: POSITIVE
Collision_energy: 25 eV
Formula: C10H26N4
MW: 202
ExactMass: 202.21575
Comments: Parent=-1
Splash: splash10-03di-1900000000-c54f5dadf66cbeb35a5f
Num Peaks: 5
58.066 64
72.081 54
84.081 165
112.113 999
129.140 417

Name: Methoxyindoleacetic acid
Synon: 2-(5-methoxy-1H-indol-3-yl)acetic acid
DB#: MSBNK-IPB_Halle-PB000520
InChIKey: COCNDHOPIHDTHK-UHFFFAOYSA-N
InChI: InChI=1S/C11H11NO3/c1-15-8-2-3-10-9(5-8)7(6-12-10)4-11(13)14/h2-3,5-6,12H,4H2,1H3,(H,13,14)
SMILES: COC1=CC2=C(C=C1)NC=C2CC(=O)O
Precursor_type: [M+H]+
Spectrum_type: MS2
Instrument_type: LC-ESI-QTOF
Instrument: API QSTAR Pulsar i
Ion_mode: POSITIVE
Collision_energy: 30 eV
Formula: C11H11NO3
MW: 205
ExactMass: 205.07389
Comments: Parent=-1
Splash: splash10-03di-0900000000-27318e117029d4756f51
Num Peaks: 10
103.054 10
117.057 34
130.063 21
132.077 7
133.062 68
145.049 132
146.055 4
147.065 4
160.075 999
161.079 29

Name: Xanthohumol
Synon: (E)-1-[2,4-dihydroxy-6-methoxy-3-(3-methylbut-2-enyl)phenyl]-3-(4-hydroxyphenyl)prop-2-en-1-one
DB#: MSBNK-IPB_Halle-PB005727
InChIKey: ORXQGKIUCDPEAJ-YRNVUSSQSA-N
InChI: InChI=1S/C21H22O5/c1-13(2)4-10-16-18(24)12-19(26-3)20(21(16)25)17(23)11-7-14-5-8-15(22)9-6-14/h4-9,11-12,22,24-25H,10H2,1-3H3/b11-7+
SMILES: CC(=CCC1=C(C(=C(C=C1O)OC)C(=O)/C=C/C2=CC=C(C=C2)O)O)C
Precursor_type: [M+H]+
Spectrum_type: MS2
Instrument_type: LC-ESI-QTOF
Instrument: micrOTOF-Q
Ion_mode: POSITIVE
Collision_energy: 10 eV
Formula: C21H22O5
MW: 354
ExactMass: 354.14672
Comments: Parent=-1
Splash: splash10-0002-0293000000-07b3d1d40f210eb9247b
Num Peaks: 13
179.031 205
180.035 11
197.042 14
198.045 0
235.093 16
236.097 1
257.076 7
299.086 999
299.451 0
300.090 139
301.092 3
355.148 166
356.151 31

Name: Phenylalanine
Synon: (2S)-2-amino-3-phenylpropanoic acid
DB#: MSBNK-IPB_Halle-PB006065
InChIKey: COLNVLDHVKWLRT-QMMMGPOBSA-N
InChI: InChI=1S/C9H11NO2/c10-8(9(11)12)6-7-4-2-1-3-5-7/h1-5,8H,6,10H2,(H,11,12)/t8-/m0/s1
SMILES: C1=CC=C(C=C1)C[C@@H](C(=O)O)N
Precursor_type: [M+H]+
Spectrum_type: MS2
Instrument_type: LC-ESI-QTOF
Instrument: micrOTOF-Q
Ion_mode: POSITIVE
Collision_energy: 15 eV
Formula: C9H11NO2
MW: 165
ExactMass: 165.07898
Comments: Parent=-1
Splash: splash10-00di-0900000000-c068f70074d7ced6b8b1
Num Peaks: 11
103.052 6
117.055 1
118.063 16
119.071 7
119.995 0
120.079 999
121.082 83
122.085 0
131.048 11
149.057 1
166.084 2

Name: Perrottetin E 2
Synon: Perrottetin E
Synon: 4-[2-(3-hydroxyphenyl)ethyl]-2-[4-[2-(3-hydroxyphenyl)ethyl]phenoxy]phenol
DB#: MSBNK-IPB_Halle-PB012001
InChIKey: OCZHVLYTYFWOAX-UHFFFAOYSA-N
InChI: InChI=1S/C28H26O4/c29-24-5-1-3-21(17-24)8-7-20-11-14-26(15-12-20)32-28-19-23(13-16-27(28)31)10-9-22-4-2-6-25(30)18-22/h1-6,11-19,29-31H,7-10H2
SMILES: C1=CC(=CC(=C1)O)CCC2=CC=C(C=C2)OC3=C(C=CC(=C3)CCC4=CC(=CC=C4)O)O
Precursor_type: [M+H]+
Spectrum_type: MS2
PrecursorMZ: 427.1904
Instrument_type: LC-ESI-QTOF
Instrument: Bruker MicrOTOF-Q
Ion_mode: POSITIVE
Collision_energy: 29.53928
Formula: C28H26O4
MW: 426
ExactMass: 426.183
Comments: Parent=427.1904
Splash: splash10-014i-0679000000-4aa28122f80c1106cd52
Num Peaks: 125
107.05 6
119.04 3
120.05 2
121.06 250
122.07 22
123.07 1
131.05 1
132.06 1
133.06 4
135.04 3
143.08 1
144.05 1
145.06 4
147.08 11
148.08 1
149.09 1
151.05 1
151.11 1
152.06 6
153.07 3
155.08 1
157.07 3
158.07 1
159.08 1
160.09 1
164.06 2
165.07 21
166.08 5
167.09 31
168.09 5
169.07 3
170.08 2
171.08 6
172.08 1
175.07 1
176.06 1
177.07 19
178.07 5
179.09 5
180.09 1
181.07 6
182.07 3
183.08 38
184.08 8
185.1 27
186.1 4
189.09 1
191.09 1
193.07 11
194.07 8
195.08 178
196.09 38
197.07 11
197.09 15
198.07 32
199.08 290
200.08 50
201.09 4
202.07 1
203.09 2
204.08 1
206.07 1
207.08 10
208.09 3
209.1 17
210.09 10
211.08 185
212.08 65
213.09 296
214.1 58
215.1 6
216.1 1
219.17 4
220.18 1
221.1 8
222.1 2
223.09 3
224.08 14
225.09 278
226.1 54
227.11 46
228.11 9
229.09 2
233.1 1
237.09 3
239.11 99
240.11 21
241.12 5
242.11 1
242.12 1
249.09 2
252.11 1
255.11 1
257.1 1
258.1 1
267.1 1
268.09 1
271.18 1
273.13 3
273.2 1
275.11 1
283.11 2
287.13 1
291.14 4
292.14 2
297.13 1
299.11 1
300.11 1
301.12 16
302.12 3
304.12 1
305.14 1
315.14 4
316.16 1
317.12 3
318.12 1
319.13 999
320.14 221
320.98 1
321.14 32
322.14 2
333.15 158
334.15 36
335.16 4
427.18 1

Name: Rifampicin
Synon: 5,6,9,17,19,21-Hexahydroxy-23-methoxy- 2,4,12,16,18,20,22-heptamethyl-8-[N-(4-methyl- 1-piperazinyl)formimidoyl]-2,7-(epoxypentadeca- [1,11,13]trienimino)-naphtho[2,1-b]furan- 1,11(2H)-dion-21-acetat
DB#: MSBNK-IPB_Halle-PB005807
InChIKey: JQXXHWHPUNPDRT-WLSIYKJHSA-N
InChI: InChI=1S/C43H58N4O12/c1-21-12-11-13-22(2)42(55)45-33-28(20-44-47-17-15-46(9)16-18-47)37(52)30-31(38(33)53)36(51)26(6)40-32(30)41(54)43(8,59-40)57-19-14-29(56-10)23(3)39(58-27(7)48)25(5)35(50)24(4)34(21)49/h11-14,19-21,23-25,29,34-35,39,49-53H,15-18H2,1-10H3,(H,45,55)/b12-11+,19-14+,22-13-,44-20+/t21-,23+,24+,25+,29-,34-,35+,39+,43-/m0/s1
SMILES: C[C@H]1/C=C/C=C(C(=O)NC2=C(C(=C3C(=C2O)C(=C(C4=C3C(=O)[C@](O4)(O/C=C/[C@@H]([C@H]([C@H]([C@@H]([C@@H]([C@@H]([C@H]1O)C)O)C)OC(=O)C)C)OC)C)C)O)O)/C=N/N5CCN(CC5)C)/C
Precursor_type: [M+H]+
Spectrum_type: MS2
Instrument_type: LC-ESI-QTOF
Instrument: micrOTOF-Q
Ion_mode: POSITIVE
Collision_energy: 20 eV
Formula: C43H58N4O12
MW: 822
ExactMass: 822.40512
Comments: Parent=-1
Splash: splash10-0005-0359100600-5cdac2c5c876ed1e5f96
Num Peaks: 251
109.061 0
119.083 3
121.063 0
121.100 4
123.079 13
124.083 0
125.096 4
131.083 0
133.099 6
135.080 10
135.113 3
137.094 20
138.097 1
139.074 5
141.089 0
143.082 0
145.099 9
146.104 0
147.115 16
148.118 0
149.058 0
149.095 0
149.129 3
151.074 139
152.077 11
153.089 18
154.097 0
155.104 12
156.107 0
157.098 4
159.114 16
160.117 1
161.094 23
162.100 2
163.110 81
164.113 7
165.124 17
166.128 0
167.068 1
169.087 1
171.113 3
173.097 22
174.101 1
175.111 25
176.115 2
177.123 16
178.129 1
179.104 147
180.108 14
181.118 8
183.132 6
185.127 7
187.121 1
187.142 2
189.091 3
189.123 0
191.104 68
192.107 6
193.120 21
194.125 1
195.129 3
197.128 1
198.138 1
199.143 5
200.152 2
201.125 22
202.127 2
203.138 12
205.122 3
207.101 3
209.115 90
210.118 9
211.126 7
212.138 0
213.126 8
214.126 0
215.140 7
216.147 0
217.132 10
218.158 0
219.135 48
220.137 7
221.135 8
222.145 1
223.138 5
224.144 0
225.158 6
226.146 0
227.136 7
228.139 0
229.126 1
231.135 30
232.139 2
233.148 7
235.132 8
236.137 1
237.141 17
238.148 1
239.140 6
240.143 0
241.156 6
241.183 1
242.148 0
242.195 0
243.169 8
244.172 1
245.151 2
246.146 0
247.135 2
249.145 13
250.143 2
251.175 18
252.178 2
253.154 15
254.157 2
255.155 8
256.163 1
257.150 5
258.152 0
259.167 8
260.168 0
261.171 16
262.176 2
263.164 0
264.146 1
265.143 1
267.170 1
269.186 50
270.190 8
271.166 50
272.169 8
273.178 5
274.181 0
275.164 0
277.176 6
278.177 0
279.170 75
280.172 13
281.171 9
282.170 0
285.181 5
286.183 0
287.197 31
288.201 5
289.175 77
290.179 13
291.183 0
297.047 1
297.180 253
297.304 0
298.053 0
298.184 42
299.062 6
299.187 4
300.067 0
303.190 1
305.202 0
311.182 0
313.175 0
315.191 301
316.195 57
317.198 5
329.213 0
331.188 0
333.202 179
334.205 34
335.207 2
347.215 2
349.196 2
354.100 0
357.201 7
358.207 0
365.228 0
375.212 88
376.213 20
377.217 1
379.133 1
380.120 9
381.124 0
382.135 0
384.146 0
393.221 5
394.223 0
397.145 134
398.150 60
398.693 0
398.824 0
399.161 999
399.652 0
399.770 0
399.861 0
400.164 193
401.166 20
402.166 0
406.126 0
407.229 0
408.233 0
415.153 5
416.157 0
419.118 1
421.133 0
423.158 0
425.143 0
429.174 0
437.140 9
438.144 2
451.303 0
452.305 2
453.310 0
474.146 0
519.218 10
520.218 3
521.234 2
522.232 0
523.172 4
541.188 2
549.231 1
607.273 0
658.258 0
667.289 8
668.289 3
676.267 2
711.325 1
729.341 2
730.341 0
731.353 12
732.358 4
763.374 0
771.352 0
772.349 0
773.364 2
774.374 1
787.569 0
789.359 30
790.364 18
790.775 0
791.375 866
791.898 0
792.102 1
792.379 382
792.729 1
793.381 82
793.572 0
793.981 0
794.388 5
805.392 0
821.387 3
822.394 2
823.403 33
824.405 15
825.390 4

Name: Arginine
Synon: 2-amino-5-(diaminomethylideneamino)pentanoic acid
DB#: MSBNK-IPB_Halle-PB000419
InChIKey: ODKSFYDXXFIFQN-UHFFFAOYSA-N
InChI: InChI=1S/C6H14N4O2/c7-4(5(11)12)2-1-3-10-6(8)9/h4H,1-3,7H2,(H,11,12)(H4,8,9,10)
SMILES: C(CC(C(=O)O)N)CN=C(N)N
Precursor_type: [M+H]+
Spectrum_type: MS2
Instrument_type: LC-ESI-QTOF
Instrument: API QSTAR Pulsar i
Ion_mode: POSITIVE
Collision_energy: 20 eV
Formula: C6H14N4O2
MW: 174
ExactMass: 174.11168
Comments: Parent=-1
Splash: splash10-02or-6900000000-98449aaa9836075e40a1
Num Peaks: 16
60.056 665
70.066 999
72.081 71
97.078 11
98.061 7
98.987 11
112.087 88
113.073 10
114.104 20
115.089 23
116.073 798
130.097 292
141.068 9
157.110 38
158.094 246
175.120 785

Name: 1H-indole-3-carboxylic acid
DB#: MSBNK-IPB_Halle-PB000618
InChIKey: KMAKOBLIOCQGJP-UHFFFAOYSA-N
InChI: InChI=1S/C9H7NO2/c11-9(12)7-5-10-8-4-2-1-3-6(7)8/h1-5,10H,(H,11,12)
SMILES: C1=CC=C2C(=C1)C(=CN2)C(=O)O
Precursor_type: [M+H]+
Spectrum_type: MS2
Instrument_type: LC-ESI-QTOF
Instrument: API QSTAR Pulsar i
Ion_mode: POSITIVE
Collision_energy: 45 eV
Formula: C9H7NO2
MW: 161
ExactMass: 161.04768
Comments: Parent=-1
Splash: splash10-00ko-9100000000-933c5733f214b898f898
Num Peaks: 8
63.023 99
65.041 400
89.042 999
90.046 186
91.058 938
116.051 259
117.058 240
118.067 41

Name: Catechin
Synon: (2R,3S)-2-(3,4-dihydroxyphenyl)chroman-3,5,7-triol
DB#: MSBNK-IPB_Halle-PB001330
InChIKey: PFTAWBLQPZVEMU-DZGCQCFKSA-N
InChI: InChI=1S/C15H14O6/c16-8-4-11(18)9-6-13(20)15(21-14(9)5-8)7-1-2-10(17)12(19)3-7/h1-5,13,15-20H,6H2/t13-,15+/m0/s1
SMILES: C1[C@@H]([C@H](OC2=CC(=CC(=C21)O)O)C3=CC(=C(C=C3)O)O)O
Precursor_type: [M+H]+
Spectrum_type: MS2
Instrument_type: LC-ESI-QTOF
Instrument: API QSTAR Pulsar i
Ion_mode: POSITIVE
Collision_energy: 25 eV
Formula: C15H14O6
MW: 290
ExactMass: 290.07904
Comments: Parent=-1
Splash: splash10-0079-0900000000-37f1c08aaabb0a3657a3
Num Peaks: 18
95.050 11
119.049 26
123.043 569
127.038 11
139.038 999
140.042 17
147.044 229
151.040 31
153.055 8
161.063 58
163.043 30
165.058 177
169.053 24
179.075 44
181.055 16
189.061 18
207.070 182
249.080 16

Name: Serine
Synon: 2-amino-3-hydroxypropanoic acid
DB#: MSBNK-IPB_Halle-PB000400
InChIKey: MTCFGRXMJLQNBG-UHFFFAOYSA-N
InChI: InChI=1S/C3H7NO3/c4-2(1-5)3(6)7/h2,5H,1,4H2,(H,6,7)
SMILES: C(C(C(=O)O)N)O
Precursor_type: [M+H]+
Spectrum_type: MS2
Instrument_type: LC-ESI-QTOF
Instrument: API QSTAR Pulsar i
Ion_mode: POSITIVE
Collision_energy: 15 eV
Formula: C3H7NO3
MW: 105
ExactMass: 105.04259
Comments: Parent=-1
Splash: splash10-03di-9100000000-0f9a39d1f5d7189dbec0
Num Peaks: 5
42.035 20
60.045 999
70.030 58
88.040 187
106.052 216

Name: 4-Hydroxybenzoylcholine
Synon: 2-(4-hydroxybenzoyl)oxyethyl-trimethylazanium
DB#: MSBNK-IPB_Halle-PB000306
InChIKey: BAPAICNRGIBFJT-UHFFFAOYSA-O
InChI: InChI=1S/C12H17NO3/c1-13(2,3)8-9-16-12(15)10-4-6-11(14)7-5-10/h4-7H,8-9H2,1-3H3/p+1
SMILES: C[N+](C)(C)CCOC(=O)C1=CC=C(C=C1)O
Precursor_type: [M]+
Spectrum_type: MS2
Instrument_type: LC-ESI-QTOF
Instrument: API QSTAR Pulsar i
Ion_mode: POSITIVE
Collision_energy: 15 eV
Formula: [C12H18NO3]+
MW: 224
ExactMass: 224.12867
Comments: Parent=-1
Splash: splash10-00xr-0890000000-73b6957acc0721cd372a
Num Peaks: 2
165.055 976
224.128 999

Name: Apomorphine
Synon: (6aS)-6-Methyl-5,6,6a,7-tetrahydro-4H-dibenzo[de,g]quinoline-10,11-diol
DB#: MSBNK-IPB_Halle-PB005946
InChIKey: VMWNQDUVQKEIOC-CYBMUJFWSA-N
InChI: InChI=1S/C17H17NO2/c1-18-8-7-10-3-2-4-12-15(10)13(18)9-11-5-6-14(19)17(20)16(11)12/h2-6,13,19-20H,7-9H2,1H3/t13-/m1/s1
SMILES: CN1CCC2=C3[C@H]1CC4=C(C3=CC=C2)C(=C(C=C4)O)O
Precursor_type: [M+H]+
Spectrum_type: MS2
Instrument_type: LC-ESI-QTOF
Instrument: micrOTOF-Q
Ion_mode: POSITIVE
Collision_energy: 15 eV
Formula: C17H17NO2
MW: 267
ExactMass: 267.12593
Comments: Parent=-1
Splash: splash10-000i-0090000000-052772c02bbf103a3ef5
Num Peaks: 22
189.068 1
190.076 1
191.083 53
192.086 5
200.060 0
201.067 2
202.073 0
207.078 4
208.082 0
218.070 1
219.078 402
220.081 60
221.085 2
225.088 1
236.077 0
236.923 0
237.088 999
238.092 136
239.096 6
268.130 144
269.133 23
270.136 0

Name: Threonine
Synon: 2-amino-3-hydroxybutanoic acid
DB#: MSBNK-IPB_Halle-PB000406
InChIKey: AYFVYJQAPQTCCC-UHFFFAOYSA-N
InChI: InChI=1S/C4H9NO3/c1-2(6)3(5)4(7)8/h2-3,6H,5H2,1H3,(H,7,8)
SMILES: CC(C(C(=O)O)N)O
Precursor_type: [M+H]+
Spectrum_type: MS2
Instrument_type: LC-ESI-QTOF
Instrument: API QSTAR Pulsar i
Ion_mode: POSITIVE
Collision_energy: 30 eV
Formula: C4H9NO3
MW: 119
ExactMass: 119.05824
Comments: Parent=-1
Splash: splash10-0a4i-9000000000-f4a2167e804c7ce9bbc6
Num Peaks: 7
46.030 21
56.051 999
57.034 199
58.029 5
58.066 5
74.061 266
84.046 11

Name: Luteolin
Synon: 5,7,3',4'-tetrahydroxy-flavone
DB#: MSBNK-IPB_Halle-PB000744
InChIKey: IQPNAANSBPBGFQ-UHFFFAOYSA-N
InChI: InChI=1S/C15H10O6/c16-8-4-11(19)15-12(20)6-13(21-14(15)5-8)7-1-2-9(17)10(18)3-7/h1-6,16-19H
SMILES: C1=CC(=C(C=C1C2=CC(=O)C3=C(C=C(C=C3O2)O)O)O)O
Precursor_type: [M+H]+
Spectrum_type: MS2
Instrument_type: LC-ESI-QTOF
Instrument: API QSTAR Pulsar i
Ion_mode: POSITIVE
Collision_energy: 55 eV
Formula: C15H10O6
MW: 286
ExactMass: 286.04774
Comments: Parent=-1
Splash: splash10-0uy0-2900000000-59881a247e3abd241d7b
Num Peaks: 52
55.019 15
63.023 8
67.018 201
68.997 298
77.039 38
79.055 41
81.035 27
83.014 14
87.022 8
89.039 309
91.054 8
97.030 36
103.054 8
105.035 18
107.049 34
109.027 24
111.008 34
115.053 113
117.033 243
121.029 9
125.024 35
127.049 45
128.060 125
129.066 50
131.048 15
133.027 18
135.043 250
137.025 177
139.054 196
143.045 25
145.062 25
147.042 24
153.018 999
154.023 27
155.056 35
157.065 58
161.026 263
167.053 27
168.060 10
171.047 66
179.040 12
184.058 20
185.064 46
187.044 10
195.048 24
203.038 9
212.050 33
213.059 47
229.052 14
240.044 15
241.054 73
287.055 45

Name: Chelidonin
Synon: (+)-Chelidonine
Synon: [1,3]Benzodioxolo[5,6-c]-1,3-dioxolo[4,5-i]phenanthridin-6-ol, 5b,6,7,12b,13,14-hexahydro-13-methyl-, (5bR,6S,12bS)-
DB#: MSBNK-IPB_Halle-PB005904
InChIKey: GHKISGDRQRSCII-ZOCIIQOWSA-N
InChI: InChI=1S/C20H19NO5/c1-21-7-13-11(2-3-15-20(13)26-9-23-15)18-14(22)4-10-5-16-17(25-8-24-16)6-12(10)19(18)21/h2-3,5-6,14,18-19,22H,4,7-9H2,1H3/t14-,18-,19+/m0/s1
SMILES: CN1CC2=C(C=CC3=C2OCO3)[C@@H]4[C@H]1C5=CC6=C(C=C5C[C@@H]4O)OCO6
Precursor_type: [M+H]+
Spectrum_type: MS2
Instrument_type: LC-ESI-QTOF
Instrument: micrOTOF-Q
Ion_mode: POSITIVE
Collision_energy: 30 eV
Formula: C20H19NO5
MW: 353
ExactMass: 353.126323
Comments: Parent=-1
Splash: splash10-004j-0090000000-9351bbe0a3b89ccb0559
Num Peaks: 86
131.047 2
135.042 25
136.045 0
143.047 2
146.059 1
149.055 1
159.042 6
160.073 0
161.058 8
162.057 0
163.037 29
164.041 0
173.055 3
175.047 0
176.067 5
177.070 0
178.074 0
179.082 4
187.040 2
188.068 28
189.067 52
190.071 6
191.083 3
201.059 0
205.062 5
206.068 0
207.078 20
208.082 1
209.059 1
217.061 151
218.065 20
219.076 17
220.079 1
221.056 0
222.064 2
223.070 0
233.055 2
234.062 0
235.071 48
236.074 5
237.087 60
238.091 7
245.055 42
246.062 14
247.071 657
248.075 91
249.085 7
250.063 2
251.065 1
262.061 0
263.067 14
264.071 2
265.082 67
266.083 9
267.063 0
274.060 0
274.877 0
275.066 999
275.176 0
275.338 0
275.402 0
276.069 152
277.078 8
278.056 4
279.062 2
280.066 2
281.070 0
291.066 0
292.069 0
293.076 21
294.081 2
295.091 24
296.097 3
304.080 0
305.076 14
306.088 3
307.091 0
308.076 0
320.087 1
321.084 0
323.086 7
324.089 0
334.105 1
336.118 11
337.122 1
354.128 0

Name: Tyramine
Synon: 4-(2-aminoethyl)phenol
DB#: MSBNK-IPB_Halle-PB000477
InChIKey: DZGWFCGJZKJUFP-UHFFFAOYSA-N
InChI: InChI=1S/C8H11NO/c9-6-5-7-1-3-8(10)4-2-7/h1-4,10H,5-6,9H2
SMILES: C1=CC(=CC=C1CCN)O
Precursor_type: [M+H]+
Spectrum_type: MS2
Instrument_type: LC-ESI-QTOF
Instrument: API QSTAR Pulsar i
Ion_mode: POSITIVE
Collision_energy: 50 eV
Formula: C8H11NO
MW: 137
ExactMass: 137.08406
Comments: Parent=-1
Splash: splash10-0fb9-9000000000-f3e7f124fef2633f8197
Num Peaks: 21
39.023 20
41.039 8
50.017 20
51.025 606
52.032 4
53.040 25
55.019 13
63.024 9
65.039 192
66.048 28
67.056 2
75.023 8
77.039 999
78.047 36
81.034 2
91.054 170
94.041 46
95.050 144
102.048 23
103.054 35
105.046 40

Name: Naringenin chalcone
Synon: 3-(4-hydroxyphenyl)-1-(2,4,6-trihydroxyphenyl)prop-2-en-1-one
DB#: MSBNK-IPB_Halle-PB000129
InChIKey: YQHMWTPYORBCMF-ZZXKWVIFSA-N
InChI: InChI=1S/C15H12O5/c16-10-4-1-9(2-5-10)3-6-12(18)15-13(19)7-11(17)8-14(15)20/h1-8,16-17,19-20H/b6-3+
SMILES: C1=CC(=CC=C1/C=C/C(=O)C2=C(C=C(C=C2O)O)O)O
Precursor_type: [M+H]+
Spectrum_type: MS2
Instrument_type: LC-ESI-QTOF
Instrument: API QSTAR Pulsar i
Ion_mode: POSITIVE
Collision_energy: 55 eV
Formula: C15H12O5
MW: 272
ExactMass: 272.06847
Comments: Parent=-1
Splash: splash10-0gbc-9700000000-ed15b50aa1d66f06bf42
Num Peaks: 28
53.038 11
55.016 78
65.038 128
67.018 178
68.997 262
69.035 214
77.039 66
79.018 35
81.036 12
83.014 48
85.029 10
91.054 825
92.057 16
92.996 10
95.050 95
97.029 94
107.049 62
111.011 37
115.055 30
119.050 536
120.054 11
123.044 22
125.022 17
128.061 15
147.043 55
152.061 28
153.018 999
154.022 20

Name: Naringin
Synon: (2S)-7-[(2S,3R,4S,5S,6R)-4,5-dihydroxy-6-(hydroxymethyl)-3-[(2S,3R,4R,5R,6S)-3,4,5-trihydroxy-6-methyloxan-2-yl]oxyoxan-2-yl]oxy-5-hydroxy-2-(4-hydroxyphenyl)chroman-4-one
DB#: MSBNK-IPB_Halle-PB000784
InChIKey: DFPMSGMNTNDNHN-ZPHOTFPESA-N
InChI: InChI=1S/C27H32O14/c1-10-20(32)22(34)24(36)26(37-10)41-25-23(35)21(33)18(9-28)40-27(25)38-13-6-14(30)19-15(31)8-16(39-17(19)7-13)11-2-4-12(29)5-3-11/h2-7,10,16,18,20-30,32-36H,8-9H2,1H3/t10-,16-,18+,20-,21+,22+,23-,24+,25+,26-,27+/m0/s1
SMILES: C[C@H]1[C@@H]([C@H]([C@H]([C@@H](O1)O[C@@H]2[C@H]([C@@H]([C@H](O[C@H]2OC3=CC(=C4C(=O)C[C@H](OC4=C3)C5=CC=C(C=C5)O)O)CO)O)O)O)O)O
Precursor_type: [M+H]+
Spectrum_type: MS2
Instrument_type: LC-ESI-QTOF
Instrument: API QSTAR Pulsar i
Ion_mode: POSITIVE
Collision_energy: 15 eV
Formula: C27H32O14
MW: 580
ExactMass: 580.17921
Comments: Parent=-1
Splash: splash10-00di-0090200000-6720eac9281b600c47b5
Num Peaks: 13
129.051 32
147.062 60
255.089 5
273.076 999
309.121 12
315.089 30
339.090 6
383.125 10
401.137 25
417.126 32
419.140 90
435.136 97
581.191 34

Name: Dopamine
Synon: 4-(2-aminoethyl)benzene-1,2-diol
DB#: MSBNK-IPB_Halle-PB000478
InChIKey: VYFYYTLLBUKUHU-UHFFFAOYSA-N
InChI: InChI=1S/C8H11NO2/c9-4-3-6-1-2-7(10)8(11)5-6/h1-2,5,10-11H,3-4,9H2
SMILES: C1=CC(=C(C=C1CCN)O)O
Precursor_type: [M+H]+
Spectrum_type: MS2
Instrument_type: LC-ESI-QTOF
Instrument: API QSTAR Pulsar i
Ion_mode: POSITIVE
Collision_energy: 10 eV
Formula: C8H11NO2
MW: 153
ExactMass: 153.07898
Comments: Parent=-1
Splash: splash10-0f79-0900000000-4769b29a6d00fe5d4db7
Num Peaks: 2
137.059 999
154.085 952

Name: 2'-Hydroxygenistein 7'-O-glucosylglucoside
DB#: MSBNK-IPB_Halle-PN000044
InChI: N/A
SMILES: N/A
Precursor_type: [M+H]+
Spectrum_type: MS2
PrecursorMZ: 611.162
Instrument_type: ESI-TOF
Instrument: micrOTOF-Q
Ion_mode: POSITIVE
Collision_energy: 15 eV
Formula: C27H30O16
MW: 610
ExactMass: 610.1533848800001
Comments: Parent=611.162
Splash: splash10-0002-0000900000-690e5ffa0d878e54b775
Num Peaks: 5
287.0566 37
449.1078 999
450.1117 163
451.1152 29
611.1610 39

Name: 2'-Hydroxygenistein 4',7-O-diglucoside
Synon: 2'Hydroxygenistein 4',7-O-diglucoside
DB#: MSBNK-IPB_Halle-PN000011
InChIKey: DGEFYIULIWNIBU-UMUUNPGWSA-N
InChI: InChI=1S/C27H30O16/c28-6-16-20(33)22(35)24(37)26(42-16)40-9-1-2-11(13(30)3-9)12-8-39-15-5-10(4-14(31)18(15)19(12)32)41-27-25(38)23(36)21(34)17(7-29)43-27/h1-5,8,16-17,20-31,33-38H,6-7H2/t16-,17-,20-,21-,22+,23+,24-,25-,26-,27-/m1/s1
SMILES: C1=CC(=C(C=C1O[C@H]2[C@@H]([C@H]([C@@H]([C@H](O2)CO)O)O)O)O)C3=COC4=CC(=CC(=C4C3=O)O)O[C@H]5[C@@H]([C@H]([C@@H]([C@H](O5)CO)O)O)O
Precursor_type: [M+H]+
Spectrum_type: MS2
PrecursorMZ: 611.164
Instrument_type: ESI-TOF
Instrument: micrOTOF-Q
Ion_mode: POSITIVE
Collision_energy: 15 eV
Formula: C27H30O16
MW: 610
ExactMass: 610.1533848800001
Comments: Parent=611.164
Splash: splash10-0002-0000900000-2ff607867b72961260b8
Num Peaks: 6
287.0547 30
449.1111 999
450.1136 131
451.1155 38
611.1719 35
612.1732 8

Name: Quercetin
Synon: 2-(3,4-dihydroxyphenyl)-3,5,7-trihydroxychromen-4-one
DB#: MSBNK-IPB_Halle-PB002412
InChIKey: REFJWTPEDVJJIY-UHFFFAOYSA-N
InChI: InChI=1S/C15H10O7/c16-7-4-10(19)12-11(5-7)22-15(14(21)13(12)20)6-1-2-8(17)9(18)3-6/h1-5,16-19,21H
SMILES: C1=CC(=C(C=C1C2=C(C(=O)C3=C(C=C(C=C3O2)O)O)O)O)O
Precursor_type: [M-H]-
Spectrum_type: MS2
Instrument_type: LC-ESI-QTOF
Instrument: API QSTAR Pulsar i
Ion_mode: NEGATIVE
Collision_energy: 55 eV
Formula: C15H10O7
MW: 302
ExactMass: 302.04265
Comments: Parent=-1
Splash: splash10-0829-8900000000-d5a528d6e21b618ea2b1
Num Peaks: 50
63.024 712
65.003 999
67.019 16
83.012 313
93.033 451
95.014 34
96.021 41
107.016 528
108.024 144
109.031 153
115.057 14
117.034 38
119.015 24
120.023 24
121.030 531
124.016 23
130.042 15
131.050 21
132.022 24
133.029 109
134.037 14
135.045 50
137.025 18
139.041 130
143.052 18
145.032 35
146.038 14
147.044 25
148.019 31
149.026 53
151.005 240
155.053 16
157.034 14
158.040 35
159.048 56
161.027 89
162.035 13
163.009 44
164.014 21
169.019 20
171.046 17
175.038 18
177.056 17
182.036 16
183.043 35
187.038 18
199.036 27
211.039 23
227.035 42
243.034 16

Name: Daidzein
Synon: 7-hydroxy-3-(4-hydroxyphenyl)chromen-4-one
DB#: MSBNK-IPB_Halle-PB002427
InChIKey: ZQSIJRDFPHDXIC-UHFFFAOYSA-N
InChI: InChI=1S/C15H10O4/c16-10-3-1-9(2-4-10)13-8-19-14-7-11(17)5-6-12(14)15(13)18/h1-8,16-17H
SMILES: C1=CC(=CC=C1C2=COC3=C(C2=O)C=CC(=C3)O)O
Precursor_type: [M-H]-
Spectrum_type: MS2
Instrument_type: LC-ESI-QTOF
Instrument: API QSTAR Pulsar i
Ion_mode: NEGATIVE
Collision_energy: 40 eV
Formula: C15H10O4
MW: 254
ExactMass: 254.05791
Comments: Parent=-1
Splash: splash10-0kn9-0790000000-e534f752489cf0f09c65
Num Peaks: 45
65.032 8
89.066 23
91.045 346
104.055 25
105.064 9
116.052 20
117.060 104
123.068 7
127.078 12
132.043 460
133.051 659
135.030 408
141.090 15
143.073 25
152.084 19
153.040 39
154.063 13
155.071 34
159.066 21
160.037 36
167.069 64
168.075 44
169.082 169
179.065 27
180.070 267
181.077 64
182.049 64
183.056 65
185.070 10
195.054 309
196.059 309
197.066 209
207.052 37
208.058 852
209.066 361
210.038 44
211.046 45
213.060 9
223.045 853
224.052 770
225.061 243
226.032 19
251.037 52
252.045 113
253.051 999

Name: Apomorphine
Synon: (6aS)-6-Methyl-5,6,6a,7-tetrahydro-4H-dibenzo[de,g]quinoline-10,11-diol
DB#: MSBNK-IPB_Halle-PB005945
InChIKey: VMWNQDUVQKEIOC-CYBMUJFWSA-N
InChI: InChI=1S/C17H17NO2/c1-18-8-7-10-3-2-4-12-15(10)13(18)9-11-5-6-14(19)17(20)16(11)12/h2-6,13,19-20H,7-9H2,1H3/t13-/m1/s1
SMILES: CN1CCC2=C3[C@H]1CC4=C(C3=CC=C2)C(=C(C=C4)O)O
Precursor_type: [M+H]+
Spectrum_type: MS2
Instrument_type: LC-ESI-QTOF
Instrument: micrOTOF-Q
Ion_mode: POSITIVE
Collision_energy: 10 eV
Formula: C17H17NO2
MW: 267
ExactMass: 267.12593
Comments: Parent=-1
Splash: splash10-014r-0090000000-29608efdadd8efd375a6
Num Peaks: 15
191.083 6
207.079 1
219.078 183
220.082 24
221.084 0
225.088 2
236.076 0
237.088 848
238.092 104
239.096 5
267.118 2
267.934 0
268.130 999
269.134 144
270.136 7

Name: Tyramine
Synon: 4-(2-aminoethyl)phenol
DB#: MSBNK-IPB_Halle-PB000476
InChIKey: DZGWFCGJZKJUFP-UHFFFAOYSA-N
InChI: InChI=1S/C8H11NO/c9-6-5-7-1-3-8(10)4-2-7/h1-4,10H,5-6,9H2
SMILES: C1=CC(=CC=C1CCN)O
Precursor_type: [M+H]+
Spectrum_type: MS2
Instrument_type: LC-ESI-QTOF
Instrument: API QSTAR Pulsar i
Ion_mode: POSITIVE
Collision_energy: 40 eV
Formula: C8H11NO
MW: 137
ExactMass: 137.08406
Comments: Parent=-1
Splash: splash10-004i-9100000000-1cccef72bfa4b910f413
Num Peaks: 17
39.023 2
51.025 122
53.041 15
55.019 9
65.039 78
66.046 3
77.039 999
78.046 20
91.054 273
93.070 29
94.041 30
95.050 183
102.047 20
103.056 200
105.046 51
119.049 2
121.065 16

Name: 2'-Hydroxygenistein C-glucoside malonylated
Synon: 2'Hydroxygenistein C-glucoside malonylated
DB#: MSBNK-IPB_Halle-PN000027
InChI: N/A
SMILES: N/A
Precursor_type: [M-H]-
Spectrum_type: MS2
PrecursorMZ: 533.093
Instrument_type: ESI-TOF
Instrument: micrOTOF-Q
Ion_mode: NEGATIVE
Collision_energy: 25 eV
Formula: C24H22O14
MW: 534
ExactMass: 534.1009553839999
Comments: Parent=533.093
Splash: splash10-004i-0009000000-35a7958e4a35e11d02e1
Num Peaks: 16
285.038 31
297.046 41
299.055 56
327.051 999
328.056 143
329.064 26
339.050 25
357.062 261
358.064 65
365.067 14
369.063 52
393.069 29
429.081 89
430.084 19
447.094 15
489.106 27

Name: 4-Coumaroylcholine
Synon: 2-[(E)-3-(4-hydroxyphenyl)prop-2-enoyl]oxyethyl-trimethylazanium
DB#: MSBNK-IPB_Halle-PB000352
InChIKey: WRLCNNSWESNISL-UHFFFAOYSA-O
InChI: InChI=1S/C14H19NO3/c1-15(2,3)10-11-18-14(17)9-6-12-4-7-13(16)8-5-12/h4-9H,10-11H2,1-3H3/p+1
SMILES: C[N+](C)(C)CCOC(=O)C=CC1=CC=C(C=C1)O
Precursor_type: [M]+
Spectrum_type: MS2
Instrument_type: LC-ESI-QTOF
Instrument: API QSTAR Pulsar i
Ion_mode: POSITIVE
Collision_energy: 15 eV
Formula: [C14H20NO3]+
MW: 250
ExactMass: 250.14432
Comments: Parent=-1
Splash: splash10-0udl-0890000000-50c67d8b965ba5885e57
Num Peaks: 2
191.071 915
250.145 999

Name: Galangin
Synon: Norizalpinin, 3,5,7-trihydroxyflavone
DB#: MSBNK-IPB_Halle-PN000120
InChIKey: VCCRNZQBSJXYJD-UHFFFAOYSA-N
InChI: InChI=1S/C15H10O5/c16-9-6-10(17)12-11(7-9)20-15(14(19)13(12)18)8-4-2-1-3-5-8/h1-7,16-17,19H
SMILES: OC1=CC(O)=C2C(=O)C(O)=C(OC2(=C1))C=3C=CC=CC=3
Precursor_type: [M+H]+
Spectrum_type: MS2
PrecursorMZ: 271.061
Instrument_type: ESI-TOF
Instrument: micrOTOF-Q
Ion_mode: POSITIVE
Collision_energy: 15 eV
Formula: C15H10O5
MW: 270
ExactMass: 270.05282342
Comments: Parent=271.061
Splash: splash10-0ukc-0920000000-7017490addc5c6a4463a
Num Peaks: 20
91.055 141
105.033 440
115.055 128
129.064 69
131.046 95
137.021 130
141.070 378
142.069 50
145.066 82
153.018 999
154.026 58
165.018 174
168.057 75
169.066 136
197.059 319
198.059 63
213.054 127
242.064 111
271.063 505
272.065 135

Name: Kaempferol
Synon: 3,5,7-trihydroxy-2-(4-hydroxyphenyl)chromen-4-one
DB#: MSBNK-IPB_Halle-PB005704
InChIKey: IYRMWMYZSQPJKC-UHFFFAOYSA-N
InChI: InChI=1S/C15H10O6/c16-8-3-1-7(2-4-8)15-14(20)13(19)12-10(18)5-9(17)6-11(12)21-15/h1-6,16-18,20H
SMILES: C1=CC(=CC=C1C2=C(C(=O)C3=C(C=C(C=C3O2)O)O)O)O
Precursor_type: [M+H]+
Spectrum_type: MS2
Instrument_type: LC-ESI-QTOF
Instrument: micrOTOF-Q
Ion_mode: POSITIVE
Collision_energy: 20 eV
Formula: C15H10O6
MW: 286
ExactMass: 286.04774
Comments: Parent=-1
Splash: splash10-000i-0090000000-bae5a8f4a371f8f2ad02
Num Peaks: 36
121.027 3
133.027 0
137.022 2
147.043 1
153.016 18
154.018 0
157.063 0
165.017 10
171.039 0
183.027 4
185.058 1
197.057 0
203.067 0
213.053 19
214.056 2
229.049 1
231.062 15
232.069 0
241.045 18
242.052 1
243.061 0
245.042 1
258.048 26
259.055 14
260.059 0
263.051 0
269.041 4
270.048 0
286.036 0
286.806 0
286.911 0
287.051 999
287.233 0
287.424 0
288.053 120
289.056 5

Name: Vitexin-2''-O-rhamnoside
Synon: 8-[(2S,3R,4S,5S,6R)-4,5-dihydroxy-6-(hydroxymethyl)-3-[(2S,3R,4R,5R,6S)-3,4,5-trihydroxy-6-methyloxan-2-yl]oxyoxan-2-yl]-5,7-dihydroxy-2-(4-hydroxyphenyl)chromen-4-one
DB#: MSBNK-IPB_Halle-PB006223
InChIKey: LYGPBZVKGHHTIE-HUBYJIGHSA-N
InChI: InChI=1S/C27H30O14/c1-9-19(33)21(35)23(37)27(38-9)41-26-22(36)20(34)16(8-28)40-25(26)18-13(31)6-12(30)17-14(32)7-15(39-24(17)18)10-2-4-11(29)5-3-10/h2-7,9,16,19-23,25-31,33-37H,8H2,1H3/t9-,16+,19-,20+,21+,22-,23+,25-,26+,27-/m0/s1
SMILES: C[C@H]1[C@@H]([C@H]([C@H]([C@@H](O1)O[C@@H]2[C@H]([C@@H]([C@H](O[C@H]2C3=C(C=C(C4=C3OC(=CC4=O)C5=CC=C(C=C5)O)O)O)CO)O)O)O)O)O
Precursor_type: [M+H]+
Spectrum_type: MS2
Instrument_type: LC-ESI-QTOF
Instrument: micrOTOF-Q
Ion_mode: POSITIVE
Collision_energy: 20 eV
Formula: C27H30O14
MW: 578
ExactMass: 578.16356
Comments: Parent=-1
Splash: splash10-001i-0001910000-9ce573975652a98d2369
Num Peaks: 37
271.057 26
272.060 2
283.057 14
284.063 1
295.057 16
296.062 0
311.050 0
313.068 127
314.071 15
323.083 0
337.067 20
338.072 1
343.077 6
349.068 0
351.083 1
355.077 1
367.078 19
368.082 2
379.078 9
380.080 0
397.088 52
398.091 7
415.099 154
416.101 22
417.108 1
432.755 0
432.855 0
433.109 999
433.718 0
434.112 159
435.114 7
459.124 7
460.127 0
561.155 0
579.165 145
580.169 31
581.169 0

Name: Keampferol
Synon: Robigenin
Synon: 3,5,7-Trihydroxy-2-(4-hydroxyphenyl)-4H-1-benzopyran-4-one
DB#: MSBNK-IPB_Halle-PN000001
InChIKey: IYRMWMYZSQPJKC-UHFFFAOYSA-N
InChI: InChI=1S/C15H10O6/c16-8-3-1-7(2-4-8)15-14(20)13(19)12-10(18)5-9(17)6-11(12)21-15/h1-6,16-18,20H
SMILES: OC=1C=CC(=CC=1)C=2OC3=CC(O)=CC(O)=C3(C(=O)C=2(O))
Precursor_type: [M+H]+
Spectrum_type: MS2
PrecursorMZ: 287.052
Instrument_type: ESI-TOF
Instrument: micrOTOF-Q
Ion_mode: POSITIVE
Collision_energy: 15 eV
Formula: C15H10O6
MW: 286
ExactMass: 286.04773804
Comments: Parent=287.052
Splash: splash10-0udi-0910000000-63aed82d6564c67bfad9
Num Peaks: 37
91.053 29
93.033 46
97.028 19
103.052 26
105.034 70
107.049 89
109.027 47
111.011 36
115.055 72
119.046 41
121.028 377
122.029 29
127.050 26
128.060 84
129.070 50
131.048 39
133.030 29
135.048 25
136.016 19
137.022 112
139.051 41
145.062 69
147.042 98
153.017 999
154.021 74
157.063 167
161.055 33
165.018 85
171.042 50
185.060 51
213.054 129
214.057 25
217.051 19
229.047 61
241.046 19
258.048 37
287.049 48

Name: Rutin
Synon: 2-(3,4-dihydroxyphenyl)-5,7-dihydroxy-3-[(2S,3R,4S,5S,6R)-3,4,5-trihydroxy-6-[[(2R,3R,4R,5R,6S)-3,4,5-trihydroxy-6-methyloxan-2-yl]oxymethyl]oxan-2-yl]oxychromen-4-one
DB#: MSBNK-IPB_Halle-PB001341
InChIKey: IKGXIBQEEMLURG-NVPNHPEKSA-N
InChI: InChI=1S/C27H30O16/c1-8-17(32)20(35)22(37)26(40-8)39-7-15-18(33)21(36)23(38)27(42-15)43-25-19(34)16-13(31)5-10(28)6-14(16)41-24(25)9-2-3-11(29)12(30)4-9/h2-6,8,15,17-18,20-23,26-33,35-38H,7H2,1H3/t8-,15+,17-,18+,20+,21-,22+,23+,26+,27-/m0/s1
SMILES: C[C@H]1[C@@H]([C@H]([C@H]([C@@H](O1)OC[C@@H]2[C@H]([C@@H]([C@H]([C@@H](O2)OC3=C(OC4=CC(=CC(=C4C3=O)O)O)C5=CC(=C(C=C5)O)O)O)O)O)O)O)O
Precursor_type: [M+H]+
Spectrum_type: MS2
Instrument_type: LC-ESI-QTOF
Instrument: API QSTAR Pulsar i
Ion_mode: POSITIVE
Collision_energy: 10 eV
Formula: C27H30O16
MW: 610
ExactMass: 610.15338
Comments: Parent=-1
Splash: splash10-0wmi-0009506000-98ca7f7c8f3072af4481
Num Peaks: 5
147.063 11
303.050 999
449.108 64
465.102 587
611.161 669

Name: Genistein
Synon: 5,7-dihydroxy-3-(4-hydroxyphenyl)chromen-4-one
DB#: MSBNK-IPB_Halle-PB000884
InChIKey: TZBJGXHYKVUXJN-UHFFFAOYSA-N
InChI: InChI=1S/C15H10O5/c16-9-3-1-8(2-4-9)11-7-20-13-6-10(17)5-12(18)14(13)15(11)19/h1-7,16-18H
SMILES: C1=CC(=CC=C1C2=COC3=CC(=CC(=C3C2=O)O)O)O
Precursor_type: [M+H]+
Spectrum_type: MS2
Instrument_type: LC-ESI-QTOF
Instrument: API QSTAR Pulsar i
Ion_mode: POSITIVE
Collision_energy: 40 eV
Formula: C15H10O5
MW: 270
ExactMass: 270.05282
Comments: Parent=-1
Splash: splash10-0uxu-0940000000-c018563cc751d4f71058
Num Peaks: 64
65.038 12
67.018 26
68.997 46
89.038 10
91.054 293
95.013 11
103.054 12
105.034 14
107.048 46
109.026 20
111.006 35
115.052 57
117.067 35
119.047 198
121.026 127
127.050 11
128.059 22
129.067 26
131.048 92
133.030 16
135.042 39
137.022 39
141.068 204
144.054 25
145.027 170
147.043 56
149.021 292
150.028 27
151.051 10
152.060 21
153.015 999
154.020 12
155.050 43
157.064 17
159.046 158
163.041 12
165.020 109
168.059 14
169.066 282
173.061 54
175.077 35
178.028 9
181.068 14
183.044 52
185.062 22
187.074 101
191.037 20
197.061 276
198.067 13
200.048 50
201.055 42
211.041 16
213.056 38
215.070 542
216.069 16
225.053 67
226.060 16
227.068 15
228.039 21
229.049 16
242.057 30
243.065 354
253.049 215
271.057 370

Name: Camalexin
Synon: 3-(1,3-thiazol-2-yl)-1H-indole
DB#: MSBNK-IPB_Halle-PB000524
InChIKey: IYODIJVWGPRBGQ-UHFFFAOYSA-N
InChI: InChI=1S/C11H8N2S/c1-2-4-10-8(3-1)9(7-13-10)11-12-5-6-14-11/h1-7,13H
SMILES: C1=CC=C2C(=C1)C(=CN2)C3=NC=CS3
Precursor_type: [M+H]+
Spectrum_type: MS2
Instrument_type: LC-ESI-QTOF
Instrument: API QSTAR Pulsar i
Ion_mode: POSITIVE
Collision_energy: 25 eV
Formula: C11H8N2S
MW: 200
ExactMass: 200.04082
Comments: Parent=-1
Splash: splash10-0udi-0090000000-c7f68d9bc46c3e59af99
Num Peaks: 7
58.995 29
142.053 20
160.026 9
168.070 11
174.038 10
201.047 999
202.052 36

Name: Sinapine
Synon: 2-[(E)-3-(4-hydroxy-3,5-dimethoxyphenyl)prop-2-enoyl]oxyethyl-trimethylazanium
DB#: MSBNK-IPB_Halle-PB006005
InChIKey: HUJXHFRXWWGYQH-UHFFFAOYSA-O
InChI: InChI=1S/C16H23NO5/c1-17(2,3)8-9-22-15(18)7-6-12-10-13(20-4)16(19)14(11-12)21-5/h6-7,10-11H,8-9H2,1-5H3/p+1
SMILES: C[N+](C)(C)CCOC(=O)C=CC1=CC(=C(C(=C1)OC)O)OC
Precursor_type: [M]+
Spectrum_type: MS2
PrecursorMZ: 310.16545
Instrument_type: LC-ESI-QTOF
Instrument: micrOTOF-Q
Ion_mode: POSITIVE
Collision_energy: 15 eV
Formula: [C16H24NO5]+
MW: 310
ExactMass: 310.16545
Comments: Parent=310.16545
Splash: splash10-0udi-0090000000-c865ce6a2d45509c5636
Num Peaks: 11
175.037 5
207.061 11
208.062 0
236.064 2
250.940 0
251.087 999
251.435 0
252.091 111
253.092 1
310.159 22
311.163 2

Name: 5-methoxyindole-3-carbaldehyde
DB#: MSBNK-IPB_Halle-PB000503
InChIKey: TUWARWGEOHQXCO-UHFFFAOYSA-N
InChI: InChI=1S/C10H9NO2/c1-13-8-2-3-10-9(4-8)7(6-12)5-11-10/h2-6,11H,1H3
SMILES: COC1=CC2=C(C=C1)NC=C2C=O
Precursor_type: [M+H]+
Spectrum_type: MS2
Instrument_type: LC-ESI-QTOF
Instrument: API QSTAR Pulsar i
Ion_mode: POSITIVE
Collision_energy: 40 eV
Formula: C10H9NO2
MW: 175
ExactMass: 175.06333
Comments: Parent=-1
Splash: splash10-0api-1900000000-1abf95fd39705a129736
Num Peaks: 31
52.034 1
62.929 1
63.021 1
64.929 1
65.039 24
76.030 4
77.038 42
78.046 89
79.041 149
80.046 2
89.038 132
90.045 52
91.053 126
93.068 3
95.048 4
103.054 2
104.050 476
105.058 999
106.052 29
116.049 165
117.058 614
118.063 27
120.081 1
121.064 102
132.043 200
133.050 642
134.058 45
144.054 22
147.067 21
148.075 20
160.043 2

Name: Naringenin
Synon: 5,7-dihydroxy-2-(4-hydroxyphenyl)chroman-4-one
DB#: MSBNK-IPB_Halle-PB000123
InChIKey: FTVWIRXFELQLPI-ZDUSSCGKSA-N
InChI: InChI=1S/C15H12O5/c16-9-3-1-8(2-4-9)13-7-12(19)15-11(18)5-10(17)6-14(15)20-13/h1-6,13,16-18H,7H2/t13-/m0/s1
SMILES: C1[C@H](OC2=CC(=CC(=C2C1=O)O)O)C3=CC=C(C=C3)O
Precursor_type: [M+H]+
Spectrum_type: MS2
Instrument_type: LC-ESI-QTOF
Instrument: API QSTAR Pulsar i
Ion_mode: POSITIVE
Collision_energy: 25 eV
Formula: C15H12O5
MW: 272
ExactMass: 272.06847
Comments: Parent=-1
Splash: splash10-0uka-0920000000-39d4e97d34abae145e72
Num Peaks: 12
119.051 45
123.044 36
147.044 606
148.048 10
151.039 11
153.018 999
154.023 26
179.036 13
189.058 16
255.067 15
273.076 527
274.081 23

Name: Genistein
Synon: 5,7-dihydroxy-3-(4-hydroxyphenyl)chromen-4-one
DB#: MSBNK-IPB_Halle-PB005714
InChIKey: TZBJGXHYKVUXJN-UHFFFAOYSA-N
InChI: InChI=1S/C15H10O5/c16-9-3-1-8(2-4-9)11-7-20-13-6-10(17)5-12(18)14(13)15(11)19/h1-7,16-18H
SMILES: C1=CC(=CC=C1C2=COC3=CC(=CC(=C3C2=O)O)O)O
Precursor_type: [M+H]+
Spectrum_type: MS2
Instrument_type: LC-ESI-QTOF
Instrument: micrOTOF-Q
Ion_mode: POSITIVE
Collision_energy: 20 eV
Formula: C15H10O5
MW: 270
ExactMass: 270.05282
Comments: Parent=-1
Splash: splash10-00di-0090000000-124c837f947147cccd5c
Num Peaks: 40
119.047 0
121.028 0
131.048 0
141.068 1
145.027 10
147.043 0
147.077 0
149.021 15
150.027 1
153.016 56
154.019 1
159.042 6
165.016 5
169.063 5
173.058 1
175.073 0
183.032 0
187.068 4
197.058 11
200.045 0
201.052 1
211.035 0
213.052 2
215.067 133
216.070 15
225.052 12
226.058 2
227.065 3
228.045 1
229.046 1
242.051 2
243.062 137
244.066 15
247.055 0
253.046 65
254.049 8
271.056 999
271.352 0
272.060 131
273.062 7

Name: Apigenin C-glucoside malonylated
DB#: MSBNK-IPB_Halle-PN000069
InChI: N/A
SMILES: N/A
Precursor_type: [M-H]-
Spectrum_type: MS2
PrecursorMZ: 517.086
Instrument_type: ESI-TOF
Instrument: micrOTOF-Q
Ion_mode: NEGATIVE
Collision_energy: 25 eV
Formula: C24H22O13
MW: 518
ExactMass: 518.106040764
Comments: Parent=517.086
Splash: splash10-03di-0009700000-075c8f500502251e41db
Num Peaks: 22
269.037 17
281.035 9
282.041 7
283.053 92
284.057 15
293.032 10
311.045 999
312.049 141
313.053 23
323.047 26
324.046 8
341.057 121
342.058 22
353.058 17
377.056 17
395.063 6
413.078 876
414.083 175
415.087 23
431.092 18
473.100 85
474.105 20

Name: Sinapoylcholine
Synon: 2-[(E)-3-(4-hydroxy-3,5-dimethoxyphenyl)prop-2-enoyl]oxyethyl-trimethylazanium
DB#: MSBNK-IPB_Halle-PB000384
InChIKey: HUJXHFRXWWGYQH-UHFFFAOYSA-O
InChI: InChI=1S/C16H23NO5/c1-17(2,3)8-9-22-15(18)7-6-12-10-13(20-4)16(19)14(11-12)21-5/h6-7,10-11H,8-9H2,1-5H3/p+1
SMILES: C[N+](C)(C)CCOC(=O)C=CC1=CC(=C(C(=C1)OC)O)OC
Precursor_type: [M]+
Spectrum_type: MS2
Instrument_type: LC-ESI-QTOF
Instrument: API QSTAR Pulsar i
Ion_mode: POSITIVE
Collision_energy: 15 eV
Formula: [C16H24NO5]+
MW: 310
ExactMass: 310.16545
Comments: Parent=-1
Splash: splash10-0ik9-0069000000-dae71e5c3cb5e8c98d01
Num Peaks: 2
251.093 729
310.165 999

Name: (8Z)-2,15-dioxapentacyclo[22.2.2.13,7.110,14.016,21]triaconta-3(30),4,6,8,10(29),11,13,16(21),17,19,25,27-dodecaene-4,5,17-triol 1
Synon: 7,8,19,20-Tetrahydro-15,18-etheno-2,6:9,13-dimetheno-1,14-benzodioxacyclodocosin-11,12,24-triol
Synon: (8Z)-2,15-dioxapentacyclo[22.2.2.13,7.110,14.016,21]triaconta-3(30),4,6,8,10(29),11,13,16(21),17,19,25,27-dodecaene-4,5,17-triol
DB#: MSBNK-IPB_Halle-PB011201
InChIKey: AZIYOMYZWLGWRM-FPLPWBNLSA-N
InChI: InChI=1S/C28H24O5/c29-24-6-2-4-21-12-9-18-10-13-22(14-11-18)32-26-17-20(16-25(30)27(26)31)8-7-19-3-1-5-23(15-19)33-28(21)24/h1-8,10-11,13-18,22,29-31H,9,12H2/b8-7-
SMILES: C1CC2=C(C(=CC=C2)O)OC3=CC=CC(=C3)/C=C\C4=CC(=C(C(=C4)O)O)OC5C=CC1C=C5
Precursor_type: [M+H]+
Spectrum_type: MS2
PrecursorMZ: 441.1697
Instrument_type: LC-ESI-QTOF
Instrument: Bruker MicrOTOF-Q
Ion_mode: POSITIVE
Collision_energy: 30.58772
Formula: C28H24O5
MW: 440
ExactMass: 440.162
Comments: Parent=441.1697
Splash: splash10-01t9-0291000000-99584634e469389aa508
Num Peaks: 218
107.05 3
115.05 5
117.07 8
119.05 12
120.05 7
121.06 48
122.07 4
123.04 34
124.05 3
125.02 3
127.05 2
128.06 2
129.07 6
130.08 2
131.05 9
132.05 2
133.06 17
134.07 2
135.04 36
136.05 26
137.06 62
138.06 5
139.04 2
141.07 7
143.08 3
145.06 17
146.07 4
147.04 6
148.05 1
149.06 14
150.06 2
151.04 6
152.06 9
153.07 18
154.07 4
155.08 16
156.09 2
157.07 10
158.07 2
159.08 4
161.06 6
162.07 2
163.05 2
164.06 2
165.07 73
166.08 28
167.09 41
168.06 14
169.07 38
170.07 9
171.08 26
172.08 4
173.06 6
177.07 12
178.08 19
179.08 35
180.09 7
181.07 151
182.07 47
183.08 232
184.08 35
185.09 36
186.09 4
187.07 12
188.08 2
191.09 14
192.09 7
193.08 24
193.09 14
194.07 54
195.08 136
196.06 76
197.06 255
198.07 74
199.08 294
200.08 61
201.09 22
202.08 6
203.08 11
204.09 2
205.07 3
206.07 6
207.08 59
208.09 29
209.07 169
210.07 161
211.08 898
212.08 527
212.98 1
213.09 531
214.09 75
215.07 445
216.07 60
217.08 9
218.08 2
219.08 12
220.09 11
221.1 60
222.1 19
223.08 118
224.08 514
224.97 1
225.09 644
226.09 154
227.07 593
228.08 439
229.09 776
230.09 115
231.09 13
235.08 9
236.08 5
237.09 57
238.1 31
239.11 999
240.1 170
241.09 517
242.09 92
243.07 33
244.08 7
245.09 3
246.1 1
247.08 2
248.08 1
249.09 4
250.09 2
251.1 2
252.08 2
253.09 15
254.09 15
255.1 253
256.11 46
257.1 8
258.09 3
259.11 6
260.09 6
261.09 6
262.1 2
263.1 3
264.1 1
265.1 6
266.1 2
267.11 2
268.09 4
269.09 6
270.1 3
271.11 4
272.09 2
272.1 1
273.12 7
274.11 2
275.11 6
276.11 2
277.12 5
278.11 1
279.1 1
281.1 2
282.1 2
283.11 29
284.12 9
285.11 6
286.1 10
287.11 21
288.11 7
289.12 8
290.11 2
291.12 4
293.1 6
294.11 3
295.11 3
297.1 6
298.1 4
299.11 28
300.11 9
301.12 73
302.12 29
303.13 26
304.12 7
305.12 11
306.12 4
307.11 2
311.11 28
312.11 16
313.12 12
314.1 19
315.1 45
316.13 19
317.12 62
318.12 16
319.13 113
320.13 36
321.13 6
322.12 9
323.12 2
329.12 67
330.12 52
331.13 34
332.14 33
333.11 240
334.12 66
335.13 79
336.13 18
337.13 3
345.11 2
346.12 2
347.13 92
348.13 209
349.14 52
350.14 8
395.16 7
396.17 2
405.15 3
413.17 3
423.16 35
424.16 11
425.16 2
439.15 19
440.16 6
441.17 67

Name: Biochanin A O-glucosylglucoside
DB#: MSBNK-IPB_Halle-PN000087
InChI: N/A
SMILES: N/A
Precursor_type: [M+H]+
Spectrum_type: MS2
PrecursorMZ: 609.184
Instrument_type: ESI-TOF
Instrument: micrOTOF-Q
Ion_mode: POSITIVE
Collision_energy: 15 eV
Formula: C28H32O15
MW: 608
ExactMass: 608.174120324
Comments: Parent=609.184
Splash: splash10-000i-0090000000-f84ba9dccd3b5ca03f4d
Num Peaks: 11
145.0527 5
285.0756 999
286.0797 99
287.0877 11
429.1245 4
447.1291 55
448.1372 9
449.1383 4
609.1815 33
610.1848 7
611.1953 3

Name: Citrulline
Synon: 2-amino-5-(carbamoylamino)pentanoic acid
DB#: MSBNK-IPB_Halle-PB000433
InChIKey: RHGKLRLOHDJJDR-UHFFFAOYSA-N
InChI: InChI=1S/C6H13N3O3/c7-4(5(10)11)2-1-3-9-6(8)12/h4H,1-3,7H2,(H,10,11)(H3,8,9,12)
SMILES: C(CC(C(=O)O)N)CNC(=O)N
Precursor_type: [M+H]+
Spectrum_type: MS2
Instrument_type: LC-ESI-QTOF
Instrument: API QSTAR Pulsar i
Ion_mode: POSITIVE
Collision_energy: 20 eV
Formula: C6H13N3O3
MW: 175
ExactMass: 175.09569
Comments: Parent=-1
Splash: splash10-0c00-2900000000-aaab7c0facde78c204d1
Num Peaks: 17
70.067 550
86.061 8
87.093 9
96.046 3
97.078 15
113.071 833
114.055 143
115.087 182
116.073 147
130.099 7
131.081 3
133.096 8
141.068 27
142.050 18
149.024 3
159.078 999
176.106 17

Name: Citrulline
Synon: 2-amino-5-(carbamoylamino)pentanoic acid
DB#: MSBNK-IPB_Halle-PB000432
InChIKey: RHGKLRLOHDJJDR-UHFFFAOYSA-N
InChI: InChI=1S/C6H13N3O3/c7-4(5(10)11)2-1-3-9-6(8)12/h4H,1-3,7H2,(H,10,11)(H3,8,9,12)
SMILES: C(CC(C(=O)O)N)CNC(=O)N
Precursor_type: [M+H]+
Spectrum_type: MS2
Instrument_type: LC-ESI-QTOF
Instrument: API QSTAR Pulsar i
Ion_mode: POSITIVE
Collision_energy: 15 eV
Formula: C6H13N3O3
MW: 175
ExactMass: 175.09569
Comments: Parent=-1
Splash: splash10-0a4i-0900000000-c800e48d8d5133420e1f
Num Peaks: 11
70.067 40
113.071 101
114.055 13
115.087 53
116.073 26
130.097 13
133.097 12
141.068 6
158.093 3
159.078 999
176.106 166

Name: Phenylglycine
Synon: 2-amino-2-phenylacetic acid
DB#: MSBNK-IPB_Halle-PB006104
InChIKey: ZGUNAGUHMKGQNY-UHFFFAOYSA-N
InChI: InChI=1S/C8H9NO2/c9-7(8(10)11)6-4-2-1-3-5-6/h1-5,7H,9H2,(H,10,11)
SMILES: C1=CC=C(C=C1)C(C(=O)O)N
Precursor_type: [M+H]+
Spectrum_type: MS2
Instrument_type: LC-ESI-QTOF
Instrument: micrOTOF-Q
Ion_mode: POSITIVE
Collision_energy: 15 eV
Formula: C8H9NO2
MW: 151
ExactMass: 151.06333
Comments: Parent=-1
Splash: splash10-000i-0900000000-c3f64210f913886692d3
Num Peaks: 5
107.046 13
108.058 0
135.043 999
136.046 81
152.066 0

Name: Amentoflavone
Synon: 8-[5-(5,7-dihydroxy-4-oxochromen-2-yl)-2-hydroxyphenyl]-5,7-dihydroxy-2-(4-hydroxyphenyl)chromen-4-one
DB#: MSBNK-IPB_Halle-PB006303
InChIKey: YUSWMAULDXZHPY-UHFFFAOYSA-N
InChI: InChI=1S/C30H18O10/c31-15-4-1-13(2-5-15)24-12-23(38)29-21(36)10-20(35)27(30(29)40-24)17-7-14(3-6-18(17)33)25-11-22(37)28-19(34)8-16(32)9-26(28)39-25/h1-12,31-36H
SMILES: C1=CC(=CC=C1C2=CC(=O)C3=C(O2)C(=C(C=C3O)O)C4=C(C=CC(=C4)C5=CC(=O)C6=C(C=C(C=C6O5)O)O)O)O
Precursor_type: [M+H]+
Spectrum_type: MS2
Instrument_type: LC-ESI-QTOF
Instrument: micrOTOF-Q
Ion_mode: POSITIVE
Collision_energy: 10 eV
Formula: C30H18O10
MW: 538
ExactMass: 538.09000
Comments: Parent=-1
Splash: splash10-000i-0000090000-a2ad9524a4b5b2c3f42f
Num Peaks: 12
538.440 0
538.624 0
538.803 0
539.090 999
539.448 0
539.543 0
539.677 0
539.792 0
540.092 258
540.236 0
540.322 0
541.095 26

Name: Genistein
Synon: 5,7-dihydroxy-3-(4-hydroxyphenyl)chromen-4-one
DB#: MSBNK-IPB_Halle-PB005721
InChIKey: TZBJGXHYKVUXJN-UHFFFAOYSA-N
InChI: InChI=1S/C15H10O5/c16-9-3-1-8(2-4-9)11-7-20-13-6-10(17)5-12(18)14(13)15(11)19/h1-7,16-18H
SMILES: C1=CC(=CC=C1C2=COC3=CC(=CC(=C3C2=O)O)O)O
Precursor_type: [M+H]+
Spectrum_type: MS2
Instrument_type: LC-ESI-QTOF
Instrument: micrOTOF-Q
Ion_mode: POSITIVE
Collision_energy: 30 eV
Formula: C15H10O5
MW: 270
ExactMass: 270.05282
Comments: Parent=-1
Splash: splash10-0uxu-0970000000-2cc2b429ddf3d4dc77f4
Num Peaks: 166
101.137 0
102.046 0
107.054 0
115.053 57
116.057 7
117.069 10
118.044 0
118.103 0
119.047 28
120.053 1
121.027 48
122.029 5
124.708 0
125.023 0
126.029 0
126.043 2
127.053 19
128.060 29
129.068 25
130.070 1
131.049 81
131.083 5
132.053 7
132.091 2
132.958 0
133.028 3
133.064 8
134.035 2
135.043 46
137.022 29
138.031 1
138.625 0
139.050 5
141.069 310
141.112 0
141.146 1
142.072 38
143.050 3
144.056 39
145.030 89
145.062 25
146.030 3
146.066 6
147.044 55
147.078 9
147.432 0
148.046 5
149.022 156
150.028 44
151.050 14
152.060 35
153.017 999
153.238 0
153.689 0
154.019 54
154.077 1
155.047 47
156.053 7
157.062 23
158.175 0
159.045 98
159.073 19
160.048 10
160.078 3
161.053 2
163.036 23
163.053 0
164.041 2
165.017 62
166.019 2
167.033 7
168.054 35
169.062 383
169.131 1
169.186 1
170.067 34
171.047 6
171.077 2
172.049 8
173.058 53
174.061 20
175.073 32
176.074 2
177.055 2
178.025 11
179.044 13
180.054 3
180.934 0
181.062 13
182.068 3
183.038 63
184.050 10
185.057 34
186.062 7
187.069 75
188.044 8
188.073 2
191.030 29
195.023 1
196.052 0
197.057 393
198.061 76
199.069 8
200.043 109
200.189 0
201.051 59
202.053 12
203.030 16
203.083 0
204.041 0
205.040 0
207.040 4
209.046 8
210.146 0
211.038 25
212.051 2
213.053 111
214.056 43
215.067 688
215.160 0
215.184 0
215.217 0
216.068 94
216.133 0
217.054 6
217.077 1
219.064 7
223.037 1
224.043 15
225.051 107
226.058 69
227.067 24
227.134 0
227.180 0
228.038 55
229.045 37
230.059 1
231.030 0
235.036 13
236.032 1
241.046 34
242.054 82
243.062 477
243.136 0
244.066 74
245.063 1
247.056 2
252.036 8
252.958 0
253.046 445
254.048 65
255.054 0
256.041 0
257.995 0
269.042 6
270.044 1
270.973 0
271.056 446
272.059 71
272.122 2
273.064 0
284.025 1
285.029 1
348.240 0
498.593 0
891.363 0

Name: Kaempferol O-glucoside malonylated
DB#: MSBNK-IPB_Halle-PN000063
InChI: N/A
SMILES: N/A
Precursor_type: [M+H]+
Spectrum_type: MS2
PrecursorMZ: 535.102
Instrument_type: ESI-TOF
Instrument: micrOTOF-Q
Ion_mode: POSITIVE
Collision_energy: 15 eV
Formula: C24H22O14
MW: 534
ExactMass: 534.100955384
Comments: Parent=535.102
Splash: splash10-000i-0090000000-35e3f599ae098569b2bd
Num Peaks: 4
287.0526 999
288.0576 155
449.1082 39
535.1070 110

Name: Indole-3-acetonitrile
Synon: 2-(1H-indol-3-yl)acetonitrile
DB#: MSBNK-IPB_Halle-PB006044
InChIKey: DMCPFOBLJMLSNX-UHFFFAOYSA-N
InChI: InChI=1S/C10H8N2/c11-6-5-8-7-12-10-4-2-1-3-9(8)10/h1-4,7,12H,5H2
SMILES: C1=CC=C2C(=C1)C(=CN2)CC#N
Precursor_type: [M+H]+
Spectrum_type: MS2
Instrument_type: LC-ESI-QTOF
Instrument: micrOTOF-Q
Ion_mode: POSITIVE
Collision_energy: 10 eV
Formula: C10H8N2
MW: 156
ExactMass: 156.06875
Comments: Parent=-1
Splash: splash10-001i-0900000000-42b4258b99c8588269de
Num Peaks: 13
117.056 150
118.059 12
128.049 3
129.052 0
130.064 999
130.342 0
131.067 84
132.070 0
146.059 0
155.059 6
156.064 3
157.074 48
158.077 3

Name: Cinnamoylcholine
Synon: trimethyl-[2-[(E)-3-phenylprop-2-enoyl]oxyethyl]azanium
DB#: MSBNK-IPB_Halle-PB000351
InChIKey: JSIOTGHMQGLKET-MDZDMXLPSA-N
InChI: InChI=1S/C14H20NO2/c1-15(2,3)11-12-17-14(16)10-9-13-7-5-4-6-8-13/h4-10H,11-12H2,1-3H3/q+1/b10-9+
SMILES: C[N+](C)(C)CCOC(=O)/C=C/C1=CC=CC=C1
Precursor_type: [M]+
Spectrum_type: MS2
Instrument_type: LC-ESI-QTOF
Instrument: API QSTAR Pulsar i
Ion_mode: POSITIVE
Collision_energy: 55 eV
Formula: [C14H20NO2]+
MW: 234
ExactMass: 234.14940
Comments: Parent=-1
Splash: splash10-0udi-0900000000-b76ee2e6244611013c48
Num Peaks: 2
103.055 999
131.049 176

Name: Adenosine
Synon: (2R,3R,4S,5R)-2-(6-aminopurin-9-yl)-5-(hydroxymethyl)oxolane-3,4-diol
DB#: MSBNK-IPB_Halle-PB006009
InChIKey: OIRDTQYFTABQOQ-KQYNXXCUSA-N
InChI: InChI=1S/C10H13N5O4/c11-8-5-9(13-2-12-8)15(3-14-5)10-7(18)6(17)4(1-16)19-10/h2-4,6-7,10,16-18H,1H2,(H2,11,12,13)/t4-,6-,7-,10-/m1/s1
SMILES: C1=NC(=C2C(=N1)N(C=N2)[C@H]3[C@@H]([C@@H]([C@H](O3)CO)O)O)N
Precursor_type: [M+H]+
Spectrum_type: MS2
Instrument_type: LC-ESI-QTOF
Instrument: micrOTOF-Q
Ion_mode: POSITIVE
Collision_energy: 10 eV
Formula: C10H13N5O4
MW: 267
ExactMass: 267.09675
Comments: Parent=-1
Splash: splash10-00kr-0960000000-c27288ef88b7c9fada7c
Num Peaks: 6
119.034 2
136.060 999
137.062 52
268.101 686
269.103 68
270.106 3

Name: Naringenin chalcone
Synon: 3-(4-hydroxyphenyl)-1-(2,4,6-trihydroxyphenyl)prop-2-en-1-one
DB#: MSBNK-IPB_Halle-PB000128
InChIKey: YQHMWTPYORBCMF-ZZXKWVIFSA-N
InChI: InChI=1S/C15H12O5/c16-10-4-1-9(2-5-10)3-6-12(18)15-13(19)7-11(17)8-14(15)20/h1-8,16-17,19-20H/b6-3+
SMILES: C1=CC(=CC=C1/C=C/C(=O)C2=C(C=C(C=C2O)O)O)O
Precursor_type: [M+H]+
Spectrum_type: MS2
Instrument_type: LC-ESI-QTOF
Instrument: API QSTAR Pulsar i
Ion_mode: POSITIVE
Collision_energy: 40 eV
Formula: C15H12O5
MW: 272
ExactMass: 272.06847
Comments: Parent=-1
Splash: splash10-0udi-0900000000-79afec38b3dde07593f3
Num Peaks: 12
67.019 19
68.997 12
69.036 10
91.054 79
95.050 20
97.029 12
107.049 22
119.050 350
123.044 36
147.044 218
153.018 999
154.022 16

Name: Phenylalanine
Synon: (2S)-2-amino-3-phenylpropanoic acid
DB#: MSBNK-IPB_Halle-PB006081
InChIKey: COLNVLDHVKWLRT-QMMMGPOBSA-N
InChI: InChI=1S/C9H11NO2/c10-8(9(11)12)6-7-4-2-1-3-5-7/h1-5,8H,6,10H2,(H,11,12)/t8-/m0/s1
SMILES: C1=CC=C(C=C1)C[C@@H](C(=O)O)N
Precursor_type: [M+H]+
Spectrum_type: MS2
Instrument_type: LC-ESI-QTOF
Instrument: micrOTOF-Q
Ion_mode: POSITIVE
Collision_energy: 20 eV
Formula: C9H11NO2
MW: 165
ExactMass: 165.07898
Comments: Parent=-1
Splash: splash10-00di-0900000000-48fb6ee11fb845efdcf3
Num Peaks: 11
103.052 11
104.056 0
117.055 4
118.064 42
119.070 24
119.981 0
120.079 999
120.339 0
121.082 84
122.084 0
131.049 3

Name: Tyramine
Synon: 4-(2-aminoethyl)phenol
DB#: MSBNK-IPB_Halle-PB006101
InChIKey: DZGWFCGJZKJUFP-UHFFFAOYSA-N
InChI: InChI=1S/C8H11NO/c9-6-5-7-1-3-8(10)4-2-7/h1-4,10H,5-6,9H2
SMILES: C1=CC(=CC=C1CCN)O
Precursor_type: [M+H]+
Spectrum_type: MS2
Instrument_type: LC-ESI-QTOF
Instrument: micrOTOF-Q
Ion_mode: POSITIVE
Collision_energy: 15 eV
Formula: C8H11NO
MW: 137
ExactMass: 137.08406
Comments: Parent=-1
Splash: splash10-00di-0900000000-7bf85350315173cf834d
Num Peaks: 5
103.052 5
119.046 3
120.055 0
121.064 999
122.067 86

Name: Reserpine
Synon: methyl (1R,15S,17R,18R,19S,20S)-6,18-dimethoxy-17-[(3,4,5-trimethoxyphenyl)carbonyloxy]- 3,13-diazapentacyclo[11.8.0.02,10.04,9.015,20]henicosa-2(10),4(9),5,7-tetraene-19-carboxylate
DB#: MSBNK-IPB_Halle-PB005744
InChIKey: QEVHRUUCFGRFIF-MDEJGZGSSA-N
InChI: InChI=1S/C33H40N2O9/c1-38-19-7-8-20-21-9-10-35-16-18-13-27(44-32(36)17-11-25(39-2)30(41-4)26(12-17)40-3)31(42-5)28(33(37)43-6)22(18)15-24(35)29(21)34-23(20)14-19/h7-8,11-12,14,18,22,24,27-28,31,34H,9-10,13,15-16H2,1-6H3/t18-,22+,24-,27-,28+,31+/m1/s1
SMILES: CO[C@H]1[C@@H](C[C@@H]2CN3CCC4=C([C@H]3C[C@@H]2[C@@H]1C(=O)OC)NC5=C4C=CC(=C5)OC)OC(=O)C6=CC(=C(C(=C6)OC)OC)OC
Precursor_type: [M+H]+
Spectrum_type: MS2
Instrument_type: LC-ESI-QTOF
Instrument: micrOTOF-Q
Ion_mode: POSITIVE
Collision_energy: 10 eV
Formula: C33H40N2O9
MW: 608
ExactMass: 608.27338
Comments: Parent=-1
Splash: splash10-0a4i-0000009000-c668164b87d533a8d8f3
Num Peaks: 7
195.062 0
397.205 5
609.272 999
609.766 0
609.889 0
610.275 249
611.277 11

Name: 2'-Hydroxygenistein C-glucoside malonylated
Synon: 2'Hydroxygenistein C-glucoside malonylated
DB#: MSBNK-IPB_Halle-PN000025
InChI: N/A
SMILES: N/A
Precursor_type: [M-H]-
Spectrum_type: MS2
PrecursorMZ: 533.079
Instrument_type: ESI-TOF
Instrument: micrOTOF-Q
Ion_mode: NEGATIVE
Collision_energy: 25 eV
Formula: C24H22O14
MW: 534
ExactMass: 534.1009553839999
Comments: Parent=533.079
Splash: splash10-004i-0009000000-5403265019bc99a1aaf4
Num Peaks: 12
285.030 39
297.033 45
299.045 46
327.039 999
328.044 136
329.047 26
357.054 255
358.059 53
369.051 46
393.052 38
429.077 77
489.093 31

Name: Catechin
Synon: (2R,3S)-2-(3,4-dihydroxyphenyl)chroman-3,5,7-triol
DB#: MSBNK-IPB_Halle-PB001331
InChIKey: PFTAWBLQPZVEMU-DZGCQCFKSA-N
InChI: InChI=1S/C15H14O6/c16-8-4-11(18)9-6-13(20)15(21-14(9)5-8)7-1-2-10(17)12(19)3-7/h1-5,13,15-20H,6H2/t13-,15+/m0/s1
SMILES: C1[C@@H]([C@H](OC2=CC(=CC(=C21)O)O)C3=CC(=C(C=C3)O)O)O
Precursor_type: [M+H]+
Spectrum_type: MS2
Instrument_type: LC-ESI-QTOF
Instrument: API QSTAR Pulsar i
Ion_mode: POSITIVE
Collision_energy: 40 eV
Formula: C15H14O6
MW: 290
ExactMass: 290.07904
Comments: Parent=-1
Splash: splash10-00dr-0900000000-53e2826e052ad8d7e162
Num Peaks: 39
55.019 39
65.039 7
67.055 21
68.997 24
77.038 6
83.051 15
91.055 26
93.035 25
95.051 33
97.030 9
105.035 16
107.049 10
111.044 80
115.054 48
119.049 182
121.027 16
123.042 999
124.046 18
127.038 15
131.047 14
133.064 33
135.044 11
137.026 36
139.039 943
140.043 18
143.049 85
147.044 328
148.047 8
149.060 8
151.057 33
153.056 10
159.047 11
161.063 189
163.043 22
165.059 37
177.059 22
179.074 29
189.061 34
207.071 15

Name: Nicotinoylcholine
Synon: trimethyl-[2-(pyridine-3-carbonyloxy)ethyl]azanium
DB#: MSBNK-IPB_Halle-PB000344
InChIKey: ZMPGJEYFRZCHQC-UHFFFAOYSA-N
InChI: InChI=1S/C11H17N2O2/c1-13(2,3)7-8-15-11(14)10-5-4-6-12-9-10/h4-6,9H,7-8H2,1-3H3/q+1
SMILES: C[N+](C)(C)CCOC(=O)C1=CN=CC=C1
Precursor_type: [M]+
Spectrum_type: MS2
Instrument_type: LC-ESI-QTOF
Instrument: API QSTAR Pulsar i
Ion_mode: POSITIVE
Collision_energy: 25 eV
Formula: [C11H17N2O2]+
MW: 209
ExactMass: 209.12900
Comments: Parent=-1
Splash: splash10-0udi-0900000000-b903a1add1b20092a4f1
Num Peaks: 2
106.029 279
150.052 999

Name: Tetrahydropapaveroline
Synon: 1-[(3,4-dihydroxyphenyl)methyl]-1,2,3,4-tetrahydroisoquinoline-6,7-diol
DB#: MSBNK-IPB_Halle-PB005923
InChIKey: ABXZOXDTHTTZJW-UHFFFAOYSA-N
InChI: InChI=1S/C16H17NO4/c18-13-2-1-9(6-14(13)19)5-12-11-8-16(21)15(20)7-10(11)3-4-17-12/h1-2,6-8,12,17-21H,3-5H2
SMILES: C1CNC(C2=CC(=C(C=C21)O)O)CC3=CC(=C(C=C3)O)O
Precursor_type: [M+H]+
Spectrum_type: MS2
Instrument_type: LC-ESI-QTOF
Instrument: micrOTOF-Q
Ion_mode: POSITIVE
Collision_energy: 10 eV
Formula: C16H17NO4
MW: 287
ExactMass: 287.11576
Comments: Parent=-1
Splash: splash10-000i-0190000000-ebe0bcf51deee4d03416
Num Peaks: 22
123.042 13
137.058 0
143.048 5
149.059 0
161.058 33
162.063 2
164.069 172
165.072 12
225.088 1
235.072 1
243.097 0
253.083 9
254.087 0
271.093 277
272.096 34
273.097 0
287.098 0
287.909 0
288.119 999
288.537 0
289.123 131
290.125 3

Name: Epicatechin
Synon: (2R,3R)-2-(3,4-dihydroxyphenyl)chroman-3,5,7-triol
DB#: MSBNK-IPB_Halle-PB001339
InChIKey: PFTAWBLQPZVEMU-UKRRQHHQSA-N
InChI: InChI=1S/C15H14O6/c16-8-4-11(18)9-6-13(20)15(21-14(9)5-8)7-1-2-10(17)12(19)3-7/h1-5,13,15-20H,6H2/t13-,15-/m1/s1
SMILES: C1[C@H]([C@H](OC2=CC(=CC(=C21)O)O)C3=CC(=C(C=C3)O)O)O
Precursor_type: [M+H]+
Spectrum_type: MS2
Instrument_type: LC-ESI-QTOF
Instrument: API QSTAR Pulsar i
Ion_mode: POSITIVE
Collision_energy: 40 eV
Formula: C15H14O6
MW: 290
ExactMass: 290.07904
Comments: Parent=-1
Splash: splash10-00dr-0900000000-8e04eb5b34378b7cb3b0
Num Peaks: 38
55.019 36
65.039 6
67.055 21
68.997 20
77.038 5
83.051 13
91.055 27
93.034 21
95.051 32
97.028 7
105.035 15
107.051 8
111.043 68
115.054 43
119.049 161
121.029 14
123.043 999
124.046 18
127.038 15
131.048 11
133.064 32
135.044 9
137.029 39
139.039 834
140.042 14
143.049 75
147.043 307
148.047 8
151.056 32
153.055 9
159.045 10
161.061 168
163.043 21
165.057 32
177.057 18
179.073 29
189.059 33
207.069 14

Name: Biochanin A
Synon: 5,7-dihydroxy-3-(4-methoxyphenyl)chromen-4-one
DB#: MSBNK-IPB_Halle-PB000241
InChIKey: WUADCCWRTIWANL-UHFFFAOYSA-N
InChI: InChI=1S/C16H12O5/c1-20-11-4-2-9(3-5-11)12-8-21-14-7-10(17)6-13(18)15(14)16(12)19/h2-8,17-18H,1H3
SMILES: COC1=CC=C(C=C1)C2=COC3=CC(=CC(=C3C2=O)O)O
Precursor_type: [M+H]+
Spectrum_type: MS2
Instrument_type: LC-ESI-QTOF
Instrument: API QSTAR Pulsar i
Ion_mode: POSITIVE
Collision_energy: 15 eV
Formula: C16H12O5
MW: 284
ExactMass: 284.06847
Comments: Parent=-1
Splash: splash10-000i-0090000000-b86a787abdddcc4cee12
Num Peaks: 2
285.076 999
286.093 30

Name: Threonine
Synon: 2-amino-3-hydroxybutanoic acid
DB#: MSBNK-IPB_Halle-PB000405
InChIKey: AYFVYJQAPQTCCC-UHFFFAOYSA-N
InChI: InChI=1S/C4H9NO3/c1-2(6)3(5)4(7)8/h2-3,6H,5H2,1H3,(H,7,8)
SMILES: CC(C(C(=O)O)N)O
Precursor_type: [M+H]+
Spectrum_type: MS2
Instrument_type: LC-ESI-QTOF
Instrument: API QSTAR Pulsar i
Ion_mode: POSITIVE
Collision_energy: 20 eV
Formula: C4H9NO3
MW: 119
ExactMass: 119.05824
Comments: Parent=-1
Splash: splash10-05fr-9000000000-077d5904642b539dd681
Num Peaks: 8
46.030 9
56.051 872
57.034 82
58.067 5
74.061 999
84.045 92
102.056 138
120.067 26

Name: 2'-Hydroxygenistein
Synon: 2'-Hydroxy-genistein
Synon: 5,7,2',4'-Tetrahydroxyisoflavone
DB#: MSBNK-IPB_Halle-PN000006
InChIKey: GSSOWCUOWLMMRJ-UHFFFAOYSA-N
InChI: InChI=1S/C15H10O6/c16-7-1-2-9(11(18)3-7)10-6-21-13-5-8(17)4-12(19)14(13)15(10)20/h1-6,16-19H
SMILES: OC1=CC=C(C(O)=C1)C2=COC3=CC(O)=CC(O)=C3(C2(=O))
Precursor_type: [M+H]+
Spectrum_type: MS2
PrecursorMZ: 287.051
Instrument_type: ESI-TOF
Instrument: micrOTOF-Q
Ion_mode: POSITIVE
Collision_energy: 15 eV
Formula: C15H10O6
MW: 286
ExactMass: 286.04773804
Comments: Parent=287.051
Splash: splash10-0gb9-0920000000-86ef9d569e8b10bc7774
Num Peaks: 40
89.037 42
91.054 108
103.052 134
107.049 375
109.027 94
111.005 55
115.053 413
119.050 69
121.062 159
123.043 103
124.016 108
128.061 103
131.051 72
132.056 46
133.063 200
137.020 42
143.046 68
145.063 86
147.041 316
149.030 41
153.017 999
154.021 62
157.063 133
160.051 82
161.054 258
162.057 44
163.037 125
171.042 261
175.041 66
185.059 86
189.051 324
191.032 49
199.035 44
200.044 49
203.036 94
213.051 139
216.039 224
217.045 880
218.051 180
269.037 44

Name: Scopoletin
Synon: 7-hydroxy-6-methoxychromen-2-one
DB#: MSBNK-IPB_Halle-PB002203
InChIKey: RODXRVNMMDRFIK-UHFFFAOYSA-N
InChI: InChI=1S/C10H8O4/c1-13-9-4-6-2-3-10(12)14-8(6)5-7(9)11/h2-5,11H,1H3
SMILES: COC1=C(C=C2C(=C1)C=CC(=O)O2)O
Precursor_type: [M+H]+
Spectrum_type: MS2
Instrument_type: LC-ESI-QQ
Instrument: TSQ 7000
Ion_mode: POSITIVE
Collision_energy: 20 eV
Formula: C10H8O4
MW: 192
ExactMass: 192.04226
Comments: Parent=-1
Splash: splash10-0006-0900000000-5329cd62457b945e1ec8
Num Peaks: 100
26.000 0
27.000 0
28.000 6
29.000 0
30.000 0
31.000 0
32.000 0
35.000 0
37.000 0
40.000 1
41.000 1
42.000 1
46.000 4
49.000 0
51.000 0
52.000 3
53.000 0
55.000 0
56.000 0
57.000 4
63.000 0
64.000 2
66.000 2
69.000 0
76.000 1
77.000 5
78.000 1
79.000 1
81.000 3
82.000 0
83.000 1
85.000 2
88.000 0
89.000 2
90.000 7
91.000 1
94.000 3
95.000 0
96.000 0
100.000 1
101.000 0
104.000 1
105.000 6
106.000 0
107.000 2
108.000 0
109.000 2
110.000 1
114.000 0
115.000 0
116.000 0
117.000 16
118.000 0
120.000 2
121.000 2
122.000 19
124.000 1
126.000 2
130.000 0
131.000 0
133.000 486
134.000 6
135.000 2
137.000 122
138.000 4
141.000 0
144.000 0
146.000 0
147.000 0
148.000 0
149.000 46
150.000 24
155.000 0
156.000 0
161.000 11
162.000 0
163.000 0
165.000 51
166.000 0
167.000 0
168.000 0
170.000 0
172.000 2
175.000 2
176.000 3
178.000 303
179.000 18
180.000 0
181.000 0
182.000 1
183.000 0
184.000 0
187.000 0
189.000 2
191.000 0
192.000 1
193.000 999
194.000 13
196.000 0
197.000 0

Name: Xanthohumol
Synon: (E)-1-[2,4-dihydroxy-6-methoxy-3-(3-methylbut-2-enyl)phenyl]-3-(4-hydroxyphenyl)prop-2-en-1-one
DB#: MSBNK-IPB_Halle-PB004942
InChIKey: ORXQGKIUCDPEAJ-YRNVUSSQSA-N
InChI: InChI=1S/C21H22O5/c1-13(2)4-10-16-18(24)12-19(26-3)20(21(16)25)17(23)11-7-14-5-8-15(22)9-6-14/h4-9,11-12,22,24-25H,10H2,1-3H3/b11-7+
SMILES: CC(=CCC1=C(C(=C(C=C1O)OC)C(=O)/C=C/C2=CC=C(C=C2)O)O)C
Precursor_type: [M-H]-
Spectrum_type: MS2
Instrument_type: LC-ESI-QQ
Instrument: TSQ QUANTUM AM
Ion_mode: NEGATIVE
Collision_energy: 20 eV
Formula: C21H22O5
MW: 354
ExactMass: 354.14672
Comments: Parent=-1
Splash: splash10-0ue9-0497000000-dec7e1db8ee3c405c5da
Num Peaks: 62
119.000 438
121.000 0
125.000 0
133.000 8
134.000 1
138.000 0
145.000 16
148.000 0
149.000 0
150.000 3
157.000 2
159.000 7
161.000 0
162.000 1
163.000 6
165.000 34
171.000 0
172.000 0
173.000 8
174.000 2
175.000 21
176.000 0
177.000 2
185.000 0
189.000 50
190.000 13
192.000 2
195.000 0
200.000 0
201.000 7
203.000 9
204.000 3
205.000 5
207.000 4
218.000 74
219.000 2
224.000 0
231.000 0
232.000 4
233.000 911
241.000 0
244.000 0
247.000 28
251.000 0
268.000 1
269.000 0
270.000 6
277.000 6
281.000 1
283.000 21
293.000 2
294.000 1
295.000 75
298.000 1
309.000 11
310.000 2
311.000 4
323.000 4
325.000 0
335.000 0
338.000 12
353.000 999

Name: Nicotianamine
Synon: (2S)-1-[(3S)-3-{[(3S)-3-amino-3-carboxypropyl]amino}-3-carboxypropyl]azetidine-2-carboxylic acid
DB#: MSBNK-IPB_Halle-PB003681
InChIKey: KRGPXXHMOXVMMM-CIUDSAMLSA-N
InChI: InChI=1S/C12H21N3O6/c13-7(10(16)17)1-4-14-8(11(18)19)2-5-15-6-3-9(15)12(20)21/h7-9,14H,1-6,13H2,(H,16,17)(H,18,19)(H,20,21)/t7-,8-,9-/m0/s1
SMILES: C1CN([C@@H]1C(=O)O)CC[C@@H](C(=O)O)NCC[C@@H](C(=O)O)N
Precursor_type: [M-H]-
Spectrum_type: MS2
Instrument_type: LC-ESI-QQ
Instrument: TSQ 7000
Ion_mode: NEGATIVE
Collision_energy: 20 eV
Formula: C12H21N3O6
MW: 303
ExactMass: 303.14303
Comments: Parent=-1
Splash: splash10-001i-0190000000-f66230597f032f610000
Num Peaks: 41
57.000 7
70.000 7
71.000 11
99.000 8
100.000 6
101.000 4
117.000 23
122.000 0
128.000 6
129.000 5
140.000 25
151.000 1
157.000 4
165.000 0
182.000 103
183.000 9
184.000 11
186.000 42
197.000 1
200.000 43
201.000 32
202.000 1
212.000 103
213.000 9
214.000 1
218.000 0
223.000 1
230.000 0
231.000 1
240.000 87
241.000 10
256.000 6
258.000 29
259.000 2
267.000 1
274.000 8
283.000 4
284.000 999
285.000 23
302.000 131
303.000 4

Name: Spermine
Synon: N,N'-bis(3-aminopropyl)butane-1,4-diamine
DB#: MSBNK-IPB_Halle-PB000490
InChIKey: PFNFFQXMRSDOHW-UHFFFAOYSA-N
InChI: InChI=1S/C10H26N4/c11-5-3-9-13-7-1-2-8-14-10-4-6-12/h13-14H,1-12H2
SMILES: C(CCNCCCN)CNCCCN
Precursor_type: [M+H]+
Spectrum_type: MS2
Instrument_type: LC-ESI-QTOF
Instrument: API QSTAR Pulsar i
Ion_mode: POSITIVE
Collision_energy: 45 eV
Formula: C10H26N4
MW: 202
ExactMass: 202.21575
Comments: Parent=-1
Splash: splash10-001i-9100000000-94edccd3f0c29b1d1550
Num Peaks: 11
41.040 3
42.035 12
55.055 18
56.050 9
58.066 111
67.056 1
70.066 35
72.081 55
84.081 999
98.097 4
112.114 205

Name: Citrulline
Synon: 2-amino-5-(carbamoylamino)pentanoic acid
DB#: MSBNK-IPB_Halle-PB000435
InChIKey: RHGKLRLOHDJJDR-UHFFFAOYSA-N
InChI: InChI=1S/C6H13N3O3/c7-4(5(10)11)2-1-3-9-6(8)12/h4H,1-3,7H2,(H,10,11)(H3,8,9,12)
SMILES: C(CC(C(=O)O)N)CNC(=O)N
Precursor_type: [M+H]+
Spectrum_type: MS2
Instrument_type: LC-ESI-QTOF
Instrument: API QSTAR Pulsar i
Ion_mode: POSITIVE
Collision_energy: 30 eV
Formula: C6H13N3O3
MW: 175
ExactMass: 175.09569
Comments: Parent=-1
Splash: splash10-00di-9200000000-d7e01c5e4b59d200d770
Num Peaks: 10
68.051 6
70.066 999
71.056 8
86.061 22
96.046 8
113.071 222
114.055 33
115.088 6
116.073 16
159.078 8

Name: Naringin
Synon: (2S)-7-[(2S,3R,4S,5S,6R)-4,5-dihydroxy-6-(hydroxymethyl)-3-[(2S,3R,4R,5R,6S)-3,4,5-trihydroxy-6-methyloxan-2-yl]oxyoxan-2-yl]oxy-5-hydroxy-2-(4-hydroxyphenyl)chroman-4-one
DB#: MSBNK-IPB_Halle-PB000783
InChIKey: DFPMSGMNTNDNHN-ZPHOTFPESA-N
InChI: InChI=1S/C27H32O14/c1-10-20(32)22(34)24(36)26(37-10)41-25-23(35)21(33)18(9-28)40-27(25)38-13-6-14(30)19-15(31)8-16(39-17(19)7-13)11-2-4-12(29)5-3-11/h2-7,10,16,18,20-30,32-36H,8-9H2,1H3/t10-,16-,18+,20-,21+,22+,23-,24+,25+,26-,27+/m0/s1
SMILES: C[C@H]1[C@@H]([C@H]([C@H]([C@@H](O1)O[C@@H]2[C@H]([C@@H]([C@H](O[C@H]2OC3=CC(=C4C(=O)C[C@H](OC4=C3)C5=CC=C(C=C5)O)O)CO)O)O)O)O)O
Precursor_type: [M+H]+
Spectrum_type: MS2
Instrument_type: LC-ESI-QTOF
Instrument: API QSTAR Pulsar i
Ion_mode: POSITIVE
Collision_energy: 10 eV
Formula: C27H32O14
MW: 580
ExactMass: 580.17921
Comments: Parent=-1
Splash: splash10-00di-0090230000-813cd4cab882880039a0
Num Peaks: 11
129.052 11
147.064 17
273.076 999
309.117 26
315.087 23
401.135 13
417.121 24
419.139 138
435.133 101
563.182 10
581.187 336

Name: Arginine
Synon: 2-amino-5-(diaminomethylideneamino)pentanoic acid
DB#: MSBNK-IPB_Halle-PB000420
InChIKey: ODKSFYDXXFIFQN-UHFFFAOYSA-N
InChI: InChI=1S/C6H14N4O2/c7-4(5(11)12)2-1-3-10-6(8)9/h4H,1-3,7H2,(H,11,12)(H4,8,9,10)
SMILES: C(CC(C(=O)O)N)CN=C(N)N
Precursor_type: [M+H]+
Spectrum_type: MS2
Instrument_type: LC-ESI-QTOF
Instrument: API QSTAR Pulsar i
Ion_mode: POSITIVE
Collision_energy: 25 eV
Formula: C6H14N4O2
MW: 174
ExactMass: 174.11168
Comments: Parent=-1
Splash: splash10-00di-9200000000-c4aafb1a16b33b3ac690
Num Peaks: 9
60.057 317
70.066 999
71.051 15
72.081 47
112.087 35
116.073 222
130.097 113
158.094 32
175.120 39

Name: Catechin
Synon: (2R,3S)-2-(3,4-dihydroxyphenyl)chroman-3,5,7-triol
DB#: MSBNK-IPB_Halle-PB001329
InChIKey: PFTAWBLQPZVEMU-DZGCQCFKSA-N
InChI: InChI=1S/C15H14O6/c16-8-4-11(18)9-6-13(20)15(21-14(9)5-8)7-1-2-10(17)12(19)3-7/h1-5,13,15-20H,6H2/t13-,15+/m0/s1
SMILES: C1[C@@H]([C@H](OC2=CC(=CC(=C21)O)O)C3=CC(=C(C=C3)O)O)O
Precursor_type: [M+H]+
Spectrum_type: MS2
Instrument_type: LC-ESI-QTOF
Instrument: API QSTAR Pulsar i
Ion_mode: POSITIVE
Collision_energy: 15 eV
Formula: C15H14O6
MW: 290
ExactMass: 290.07904
Comments: Parent=-1
Splash: splash10-0076-0950000000-f57ee00fad87339acfd6
Num Peaks: 15
123.043 518
139.039 853
140.043 9
147.044 40
151.039 56
153.056 7
163.043 9
165.058 372
169.054 35
181.055 9
207.070 17
249.080 28
273.078 56
291.086 999
292.092 25

Name: Adenosine
Synon: (2R,3R,4S,5R)-2-(6-aminopurin-9-yl)-5-(hydroxymethyl)oxolane-3,4-diol
DB#: MSBNK-IPB_Halle-PB006011
InChIKey: OIRDTQYFTABQOQ-KQYNXXCUSA-N
InChI: InChI=1S/C10H13N5O4/c11-8-5-9(13-2-12-8)15(3-14-5)10-7(18)6(17)4(1-16)19-10/h2-4,6-7,10,16-18H,1H2,(H2,11,12,13)/t4-,6-,7-,10-/m1/s1
SMILES: C1=NC(=C2C(=N1)N(C=N2)[C@H]3[C@@H]([C@@H]([C@H](O3)CO)O)O)N
Precursor_type: [M+H]+
Spectrum_type: MS2
Instrument_type: LC-ESI-QTOF
Instrument: micrOTOF-Q
Ion_mode: POSITIVE
Collision_energy: 20 eV
Formula: C10H13N5O4
MW: 267
ExactMass: 267.09675
Comments: Parent=-1
Splash: splash10-000i-0900000000-d29b79bb7074f6b6007f
Num Peaks: 5
119.034 21
120.036 0
136.061 999
137.062 56
268.100 0

Name: Tetrahydropapaveroline
Synon: 1-[(3,4-dihydroxyphenyl)methyl]-1,2,3,4-tetrahydroisoquinoline-6,7-diol
DB#: MSBNK-IPB_Halle-PB005925
InChIKey: ABXZOXDTHTTZJW-UHFFFAOYSA-N
InChI: InChI=1S/C16H17NO4/c18-13-2-1-9(6-14(13)19)5-12-11-8-16(21)15(20)7-10(11)3-4-17-12/h1-2,6-8,12,17-21H,3-5H2
SMILES: C1CNC(C2=CC(=C(C=C21)O)O)CC3=CC(=C(C=C3)O)O
Precursor_type: [M+H]+
Spectrum_type: MS2
Instrument_type: LC-ESI-QTOF
Instrument: micrOTOF-Q
Ion_mode: POSITIVE
Collision_energy: 20 eV
Formula: C16H17NO4
MW: 287
ExactMass: 287.11576
Comments: Parent=-1
Splash: splash10-03k9-0930000000-eb86d1f7598002b19864
Num Peaks: 82
115.053 28
116.058 1
119.048 2
123.043 556
124.046 32
131.048 6
133.064 15
135.042 2
137.059 53
138.062 0
143.048 376
143.129 0
144.052 30
145.060 0
146.059 0
147.044 5
148.061 1
149.056 26
150.056 0
152.069 3
155.081 0
160.054 1
161.059 625
161.140 1
162.063 72
163.068 1
163.952 0
164.069 999
164.175 0
165.072 62
166.075 2
169.101 0
178.078 2
179.084 19
180.086 0
183.078 1
189.065 1
190.067 0
195.078 0
197.060 1
197.095 3
201.084 1
206.070 0
207.078 72
208.082 7
209.059 0
210.065 19
211.071 3
213.088 3
214.060 1
215.100 0
217.063 5
218.074 1
223.075 2
224.077 1
225.088 124
226.091 13
227.072 0
234.068 1
235.072 97
236.076 9
238.058 8
239.066 0
241.084 1
242.054 33
243.068 7
243.095 4
251.065 2
252.077 0
253.083 180
254.086 24
256.070 48
257.075 3
259.095 3
269.076 6
270.085 2
271.093 314
272.097 38
273.103 0
288.120 57
288.236 0
289.125 4

Name: Cystine
Synon: 2-amino-3-(2-amino-3-hydroxy-3-oxopropyl)disulfanylpropanoic acid
DB#: MSBNK-IPB_Halle-PB000448
InChIKey: LEVWYRKDKASIDU-UHFFFAOYSA-N
InChI: InChI=1S/C6H12N2O4S2/c7-3(5(9)10)1-13-14-2-4(8)6(11)12/h3-4H,1-2,7-8H2,(H,9,10)(H,11,12)
SMILES: C(C(C(=O)O)N)SSCC(C(=O)O)N
Precursor_type: [M+H]+
Spectrum_type: MS2
Instrument_type: LC-ESI-QTOF
Instrument: API QSTAR Pulsar i
Ion_mode: POSITIVE
Collision_energy: 40 eV
Formula: C6H12N2O4S2
MW: 240
ExactMass: 240.02385
Comments: Parent=-1
Splash: splash10-00di-9200000000-bbc54abecad93085c207
Num Peaks: 41
41.039 3
42.037 0
43.056 4
46.031 4
47.993 9
55.021 14
55.057 19
57.072 7
58.997 11
59.052 1
62.931 1
64.932 0
67.057 5
69.073 16
70.031 0
73.029 32
74.017 999
75.018 6
76.023 47
77.042 0
78.970 6
79.057 4
81.071 2
83.087 2
84.962 33
86.992 19
88.040 3
91.057 3
92.018 27
93.073 3
95.087 1
97.104 0
102.985 4
105.003 24
105.980 2
107.089 0
107.996 0
120.012 228
121.016 1
122.028 26
151.986 3

Name: Laudanosine
Synon: 1-[(3,4-dimethoxyphenyl)methyl]-6,7-dimethoxy-2-methyl-3,4-dihydro-1H-isoquinoline
DB#: MSBNK-IPB_Halle-PB005864
InChIKey: KGPAYJZAMGEDIQ-UHFFFAOYSA-N
InChI: InChI=1S/C21H27NO4/c1-22-9-8-15-12-20(25-4)21(26-5)13-16(15)17(22)10-14-6-7-18(23-2)19(11-14)24-3/h6-7,11-13,17H,8-10H2,1-5H3
SMILES: CN1CCC2=CC(=C(C=C2C1CC3=CC(=C(C=C3)OC)OC)OC)OC
Precursor_type: [M+H]+
Spectrum_type: MS2
Instrument_type: LC-ESI-QTOF
Instrument: micrOTOF-Q
Ion_mode: POSITIVE
Collision_energy: 10 eV
Formula: C21H27NO4
MW: 357
ExactMass: 357.19401
Comments: Parent=-1
Splash: splash10-0a4i-0019000000-13cd7882f0de25fc26b2
Num Peaks: 13
151.074 0
189.089 2
206.115 198
207.119 17
296.136 0
315.154 3
327.155 23
328.158 2
329.170 0
357.914 0
358.197 999
359.200 159
360.202 3

Name: Arginine
Synon: 2-amino-5-(diaminomethylideneamino)pentanoic acid
DB#: MSBNK-IPB_Halle-PB000421
InChIKey: ODKSFYDXXFIFQN-UHFFFAOYSA-N
InChI: InChI=1S/C6H14N4O2/c7-4(5(11)12)2-1-3-10-6(8)9/h4H,1-3,7H2,(H,11,12)(H4,8,9,10)
SMILES: C(CC(C(=O)O)N)CN=C(N)N
Precursor_type: [M+H]+
Spectrum_type: MS2
Instrument_type: LC-ESI-QTOF
Instrument: API QSTAR Pulsar i
Ion_mode: POSITIVE
Collision_energy: 30 eV
Formula: C6H14N4O2
MW: 174
ExactMass: 174.11168
Comments: Parent=-1
Splash: splash10-00di-9000000000-3fd1325c8804b803517f
Num Peaks: 7
60.056 173
70.066 999
71.049 25
72.080 29
112.087 12
116.073 53
130.097 42

Name: Naringenin chalcone
Synon: 3-(4-hydroxyphenyl)-1-(2,4,6-trihydroxyphenyl)prop-2-en-1-one
DB#: MSBNK-IPB_Halle-PB002408
InChIKey: YQHMWTPYORBCMF-ZZXKWVIFSA-N
InChI: InChI=1S/C15H12O5/c16-10-4-1-9(2-5-10)3-6-12(18)15-13(19)7-11(17)8-14(15)20/h1-8,16-17,19-20H/b6-3+
SMILES: C1=CC(=CC=C1/C=C/C(=O)C2=C(C=C(C=C2O)O)O)O
Precursor_type: [M-H]-
Spectrum_type: MS2
Instrument_type: LC-ESI-QTOF
Instrument: API QSTAR Pulsar i
Ion_mode: NEGATIVE
Collision_energy: 55 eV
Formula: C15H12O5
MW: 272
ExactMass: 272.06847
Comments: Parent=-1
Splash: splash10-014i-7900000000-42ef7b65ce430e844b49
Num Peaks: 14
63.025 305
65.004 546
68.999 25
83.012 105
93.035 105
107.016 87
108.024 12
115.057 14
117.035 135
119.050 999
143.051 30
145.031 31
151.003 12
187.035 12

Name: Cysteine
Synon: 2-amino-3-sulfanylpropanoic acid
DB#: MSBNK-IPB_Halle-PB000437
InChIKey: XUJNEKJLAYXESH-UHFFFAOYSA-N
InChI: InChI=1S/C3H7NO2S/c4-2(1-7)3(5)6/h2,7H,1,4H2,(H,5,6)
SMILES: C(C(C(=O)O)N)S
Precursor_type: [M+H]+
Spectrum_type: MS2
Instrument_type: LC-ESI-QTOF
Instrument: API QSTAR Pulsar i
Ion_mode: POSITIVE
Collision_energy: 15 eV
Formula: C3H7NO2S
MW: 121
ExactMass: 121.01975
Comments: Parent=-1
Splash: splash10-056r-9500000000-f162f0f0e76fc5e48fae
Num Peaks: 6
58.996 111
76.022 999
86.990 350
88.040 7
105.001 478
122.029 347

Name: Indoleacetic acid
Synon: 2-(1H-indol-3-yl)acetic acid
DB#: MSBNK-IPB_Halle-PB000512
InChIKey: SEOVTRFCIGRIMH-UHFFFAOYSA-N
InChI: InChI=1S/C10H9NO2/c12-10(13)5-7-6-11-9-4-2-1-3-8(7)9/h1-4,6,11H,5H2,(H,12,13)
SMILES: C1=CC=C2C(=C1)C(=CN2)CC(=O)O
Precursor_type: [M+H]+
Spectrum_type: MS2
Instrument_type: LC-ESI-QTOF
Instrument: API QSTAR Pulsar i
Ion_mode: POSITIVE
Collision_energy: 30 eV
Formula: C10H9NO2
MW: 175
ExactMass: 175.06333
Comments: Parent=-1
Splash: splash10-004i-0900000000-8b6d017f531bd8d99040
Num Peaks: 17
98.985 22
116.048 2
117.054 5
130.063 290
131.065 1
132.046 3
133.048 16
144.043 201
146.058 7
148.073 223
149.021 15
158.060 9
161.043 5
162.052 1
165.998 8
176.070 999
177.069 6

Name: Chrysoeriol diglucoside methylmalonylated
DB#: MSBNK-IPB_Halle-PN000095
InChI: N/A
SMILES: N/A
Precursor_type: [M+H]+
Spectrum_type: MS2
PrecursorMZ: 725.186
Instrument_type: ESI-TOF
Instrument: micrOTOF-Q
Ion_mode: POSITIVE
Collision_energy: 15 eV
Formula: C32H36O19
MW: 724
ExactMass: 724.1850789319999
Comments: Parent=725.186
Splash: splash10-0udi-0009000000-67dfa8a025cfdb791482
Num Peaks: 1
301.0676 999

Name: Bicuculline
Synon: (6R)-6-[(5S)-6-methyl-7,8-dihydro-5H-[1,3]dioxolo[4,5-g]isoquinolin-5-yl]-6H-furo[3,4-g][1,3]benzodioxol-8-one
DB#: MSBNK-IPB_Halle-PB005944
InChIKey: IYGYMKDQCDOMRE-ZWKOTPCHSA-N
InChI: InChI=1S/C20H17NO6/c1-21-5-4-10-6-14-15(25-8-24-14)7-12(10)17(21)18-11-2-3-13-19(26-9-23-13)16(11)20(22)27-18/h2-3,6-7,17-18H,4-5,8-9H2,1H3/t17-,18+/m0/s1
SMILES: CN1CCC2=CC3=C(C=C2[C@H]1[C@H]4C5=C(C6=C(C=C5)OCO6)C(=O)O4)OCO3
Precursor_type: [M+H]+
Spectrum_type: MS2
Instrument_type: LC-ESI-QTOF
Instrument: micrOTOF-Q
Ion_mode: POSITIVE
Collision_energy: 30 eV
Formula: C20H17NO6
MW: 367
ExactMass: 367.10559
Comments: Parent=-1
Splash: splash10-004j-0091000000-4bda65b490b53129adf9
Num Peaks: 116
135.042 0
147.042 0
149.022 0
149.057 4
159.052 3
160.064 1
161.059 1
163.052 2
165.067 11
166.073 0
167.084 1
174.056 0
175.043 2
176.068 28
177.016 14
177.068 4
179.033 0
181.061 0
187.042 0
188.068 15
189.075 21
190.083 75
191.049 8
191.081 3
192.051 0
193.060 13
194.064 0
195.076 0
203.045 0
205.061 15
206.067 2
207.076 1
209.058 5
210.061 0
211.070 1
217.059 0
219.041 49
220.046 6
221.056 81
222.061 12
223.072 34
224.075 2
225.049 1
231.040 1
233.056 63
234.060 9
235.071 15
236.069 1
237.051 14
238.057 1
239.066 5
245.059 1
247.035 30
248.044 5
249.051 869
249.367 0
250.054 121
251.065 54
252.069 8
253.051 2
259.037 0
261.051 158
261.152 0
262.056 26
263.065 18
264.071 2
265.047 8
266.052 11
267.061 38
268.064 3
273.055 0
274.072 0
275.065 2
276.057 0
276.817 0
277.045 999
277.448 0
278.049 170
279.061 292
280.064 45
281.054 7
282.048 2
283.055 0
289.045 86
290.048 17
291.061 27
292.067 12
293.072 6
294.055 0
295.056 21
296.062 3
297.067 1
303.061 16
304.067 2
305.047 1
306.061 4
307.055 409
308.059 71
309.070 9
310.077 0
311.049 3
317.044 2
318.058 0
319.055 33
320.055 22
321.058 5
325.065 4
332.087 0
334.066 2
335.074 11
336.076 1
337.066 0
338.083 0
350.098 0
353.082 0
368.106 2

Name: Biochanin A 8-C-glucoside malonylated
DB#: MSBNK-IPB_Halle-PN000083
InChI: N/A
SMILES: N/A
Precursor_type: [M-H]-
Spectrum_type: MS2
PrecursorMZ: 487.127
Instrument_type: ESI-TOF
Instrument: micrOTOF-Q
Ion_mode: NEGATIVE
Collision_energy: 25 eV
Formula: C25H24O13
MW: 532
ExactMass: 532.1216908279999
Comments: Parent=487.127
Splash: splash10-004i-0039000000-45c2f511c8025fb29820
Num Peaks: 11
282.052 239
283.060 66
297.077 165
298.078 23
325.073 999
326.075 141
337.070 51
355.078 75
367.082 41
427.103 66
487.137 35

Name: Tyrosine
Synon: 2-amino-3-(4-hydroxyphenyl)propanoic acid
DB#: MSBNK-IPB_Halle-PB000410
InChIKey: OUYCCCASQSFEME-UHFFFAOYSA-N
InChI: InChI=1S/C9H11NO3/c10-8(9(12)13)5-6-1-3-7(11)4-2-6/h1-4,8,11H,5,10H2,(H,12,13)
SMILES: C1=CC(=CC=C1CC(C(=O)O)N)O
Precursor_type: [M+H]+
Spectrum_type: MS2
Instrument_type: LC-ESI-QTOF
Instrument: API QSTAR Pulsar i
Ion_mode: POSITIVE
Collision_energy: 10 eV
Formula: C9H11NO3
MW: 181
ExactMass: 181.07389
Comments: Parent=-1
Splash: splash10-001i-0900000000-a721f71823371bc41597
Num Peaks: 3
136.076 113
165.056 277
182.082 999

Name: Valine
Synon: 2-amino-3-methylbutanoic acid
DB#: MSBNK-IPB_Halle-PB000388
InChIKey: KZSNJWFQEVHDMF-UHFFFAOYSA-N
InChI: InChI=1S/C5H11NO2/c1-3(2)4(6)5(7)8/h3-4H,6H2,1-2H3,(H,7,8)
SMILES: CC(C)C(C(=O)O)N
Precursor_type: [M+H]+
Spectrum_type: MS2
Instrument_type: LC-ESI-QTOF
Instrument: API QSTAR Pulsar i
Ion_mode: POSITIVE
Collision_energy: 10 eV
Formula: C5H11NO2
MW: 117
ExactMass: 117.07898
Comments: Parent=-1
Splash: splash10-01b9-5900000000-cb4e7bfd595dddb15381
Num Peaks: 2
72.082 584
118.090 999

Name: Cinnamoylcholine
Synon: trimethyl-[2-[(E)-3-phenylprop-2-enoyl]oxyethyl]azanium
DB#: MSBNK-IPB_Halle-PB000349
InChIKey: JSIOTGHMQGLKET-MDZDMXLPSA-N
InChI: InChI=1S/C14H20NO2/c1-15(2,3)11-12-17-14(16)10-9-13-7-5-4-6-8-13/h4-10H,11-12H2,1-3H3/q+1/b10-9+
SMILES: C[N+](C)(C)CCOC(=O)/C=C/C1=CC=CC=C1
Precursor_type: [M]+
Spectrum_type: MS2
Instrument_type: LC-ESI-QTOF
Instrument: API QSTAR Pulsar i
Ion_mode: POSITIVE
Collision_energy: 25 eV
Formula: [C14H20NO2]+
MW: 234
ExactMass: 234.14940
Comments: Parent=-1
Splash: splash10-004i-0900000000-7789a80db3f39f7be5c5
Num Peaks: 2
131.050 199
175.076 999

Name: Glutamine
Synon: 2,5-diamino-5-oxopentanoic acid
DB#: MSBNK-IPB_Halle-PB000468
InChIKey: ZDXPYRJPNDTMRX-UHFFFAOYSA-N
InChI: InChI=1S/C5H10N2O3/c6-3(5(9)10)1-2-4(7)8/h3H,1-2,6H2,(H2,7,8)(H,9,10)
SMILES: C(CC(=O)N)C(C(=O)O)N
Precursor_type: [M+H]+
Spectrum_type: MS2
Instrument_type: LC-ESI-QTOF
Instrument: API QSTAR Pulsar i
Ion_mode: POSITIVE
Collision_energy: 30 eV
Formula: C5H10N2O3
MW: 146
ExactMass: 146.06914
Comments: Parent=-1
Splash: splash10-001i-9000000000-379417f822aa7aaf53f7
Num Peaks: 7
41.040 24
56.051 154
74.024 4
84.045 999
85.029 19
102.058 13
130.051 18

Name: Biochanin A
Synon: 5,7-dihydroxy-3-(4-methoxyphenyl)chromen-4-one
DB#: MSBNK-IPB_Halle-PB005707
InChIKey: WUADCCWRTIWANL-UHFFFAOYSA-N
InChI: InChI=1S/C16H12O5/c1-20-11-4-2-9(3-5-11)12-8-21-14-7-10(17)6-13(18)15(14)16(12)19/h2-8,17-18H,1H3
SMILES: COC1=CC=C(C=C1)C2=COC3=CC(=CC(=C3C2=O)O)O
Precursor_type: [M+H]+
Spectrum_type: MS2
Instrument_type: LC-ESI-QTOF
Instrument: micrOTOF-Q
Ion_mode: POSITIVE
Collision_energy: 10 eV
Formula: C16H12O5
MW: 284
ExactMass: 284.06847
Comments: Parent=-1
Splash: splash10-000i-0090000000-044c1c4eb448c746bb3c
Num Peaks: 8
229.082 1
242.054 0
253.044 1
269.040 0
270.048 5
285.071 999
286.074 116
287.077 3

Name: Rifampicin
Synon: 5,6,9,17,19,21-Hexahydroxy-23-methoxy- 2,4,12,16,18,20,22-heptamethyl-8-[N-(4-methyl- 1-piperazinyl)formimidoyl]-2,7-(epoxypentadeca- [1,11,13]trienimino)-naphtho[2,1-b]furan- 1,11(2H)-dion-21-acetat
DB#: MSBNK-IPB_Halle-PB005806
InChIKey: JQXXHWHPUNPDRT-WLSIYKJHSA-N
InChI: InChI=1S/C43H58N4O12/c1-21-12-11-13-22(2)42(55)45-33-28(20-44-47-17-15-46(9)16-18-47)37(52)30-31(38(33)53)36(51)26(6)40-32(30)41(54)43(8,59-40)57-19-14-29(56-10)23(3)39(58-27(7)48)25(5)35(50)24(4)34(21)49/h11-14,19-21,23-25,29,34-35,39,49-53H,15-18H2,1-10H3,(H,45,55)/b12-11+,19-14+,22-13-,44-20+/t21-,23+,24+,25+,29-,34-,35+,39+,43-/m0/s1
SMILES: C[C@H]1/C=C/C=C(C(=O)NC2=C(C(=C3C(=C2O)C(=C(C4=C3C(=O)[C@](O4)(O/C=C/[C@@H]([C@H]([C@H]([C@@H]([C@@H]([C@@H]([C@H]1O)C)O)C)OC(=O)C)C)OC)C)C)O)O)/C=N/N5CCN(CC5)C)/C
Precursor_type: [M+H]+
Spectrum_type: MS2
Instrument_type: LC-ESI-QTOF
Instrument: micrOTOF-Q
Ion_mode: POSITIVE
Collision_energy: 15 eV
Formula: C43H58N4O12
MW: 822
ExactMass: 822.40512
Comments: Parent=-1
Splash: splash10-0006-0002000920-993972cb71083f108748
Num Peaks: 117
123.079 1
137.095 1
139.074 0
145.099 0
147.115 1
151.073 16
152.077 0
153.090 1
155.107 1
159.118 0
161.095 2
163.110 11
165.125 1
173.099 0
175.109 1
177.124 1
179.105 19
180.107 0
181.119 0
191.106 6
193.120 1
201.123 2
203.139 0
207.103 0
209.117 12
211.126 0
213.125 0
217.149 0
219.136 5
220.138 0
221.152 0
231.135 2
233.147 0
235.132 0
237.142 1
239.137 0
243.169 0
249.144 2
251.174 2
253.156 1
255.152 0
259.162 1
261.171 2
269.187 7
271.165 9
277.180 0
279.171 10
280.177 0
281.174 0
287.200 2
289.176 14
290.181 2
297.180 42
298.184 5
299.061 0
315.192 54
316.195 8
317.199 0
331.186 0
333.202 39
334.204 5
375.212 17
376.215 3
380.122 1
393.226 0
397.146 35
398.151 13
399.162 187
400.164 35
401.167 3
415.159 1
423.159 0
425.140 0
437.141 4
438.142 0
451.298 0
452.306 0
519.217 5
520.222 1
521.233 0
523.177 0
541.189 0
667.290 2
668.292 0
729.340 0
731.356 4
732.362 1
773.368 0
789.362 36
789.573 0
790.364 20
790.580 0
790.806 0
791.377 999
791.843 0
792.019 0
792.135 0
792.380 426
792.725 0
792.869 0
792.982 0
793.167 0
793.383 91
793.536 1
794.385 7
805.393 0
821.387 21
821.592 0
822.391 13
822.576 0
823.403 288
823.986 0
824.407 133
824.859 0
825.406 31
825.558 0
826.409 1

Name: 2'-Hydroxygenistein C-glucoside malonylated
Synon: 2'Hydroxygenistein C-glucoside malonylated
DB#: MSBNK-IPB_Halle-PN000028
InChI: N/A
SMILES: N/A
Precursor_type: [M+H]+
Spectrum_type: MS2
PrecursorMZ: 535.112
Instrument_type: ESI-TOF
Instrument: micrOTOF-Q
Ion_mode: POSITIVE
Collision_energy: 15 eV
Formula: C24H22O14
MW: 534
ExactMass: 534.1009553839999
Comments: Parent=535.112
Splash: splash10-000i-0006690000-e0f5101ae9a00417e8b2
Num Peaks: 42
287.0559 27
299.0583 42
311.0572 103
312.0616 20
329.0679 388
330.0702 55
353.0684 212
354.0726 42
359.0764 61
360.0839 17
367.0881 31
371.0817 20
377.0685 88
378.0690 18
383.0781 13
395.0796 229
396.0850 38
397.0847 10
413.0926 114
414.0928 24
431.1023 85
432.1059 20
437.0895 14
449.1136 62
450.1106 17
455.1028 319
456.1083 62
457.1046 18
473.1132 226
474.1143 63
475.1178 14
481.0918 22
491.1244 89
492.1274 22
499.0917 191
500.0969 52
517.0995 413
518.1088 78
519.1080 30
535.1132 999
536.1174 174
537.1185 56

Name: Lysine
Synon: 2,6-diaminohexanoic acid
DB#: MSBNK-IPB_Halle-PB000429
InChIKey: KDXKERNSBIXSRK-UHFFFAOYSA-N
InChI: InChI=1S/C6H14N2O2/c7-4-2-1-3-5(8)6(9)10/h5H,1-4,7-8H2,(H,9,10)
SMILES: C(CCN)CC(C(=O)O)N
Precursor_type: [M+H]+
Spectrum_type: MS2
Instrument_type: LC-ESI-QTOF
Instrument: API QSTAR Pulsar i
Ion_mode: POSITIVE
Collision_energy: 30 eV
Formula: C6H14N2O2
MW: 146
ExactMass: 146.10553
Comments: Parent=-1
Splash: splash10-001i-9000000000-0ecbf1ff77a05e3f57d8
Num Peaks: 15
41.040 1
42.035 3
55.056 12
56.051 120
57.071 4
65.040 2
67.055 51
69.059 3
74.024 8
82.067 2
84.082 999
85.066 5
95.050 2
112.077 1
130.087 3

Name: Biochanin A
Synon: 5,7-Dihydroxy-4'-methoxyisoflavone
Synon: 4'-Methylgenistein
DB#: MSBNK-IPB_Halle-PN000109
InChIKey: WUADCCWRTIWANL-UHFFFAOYSA-N
InChI: InChI=1S/C16H12O5/c1-20-11-4-2-9(3-5-11)12-8-21-14-7-10(17)6-13(18)15(14)16(12)19/h2-8,17-18H,1H3
SMILES: COC=1C=CC(=CC=1)C2=COC3=CC(O)=CC(O)=C3(C2(=O))
Precursor_type: [M+H]+
Spectrum_type: MS2
PrecursorMZ: 285.171
Instrument_type: ESI-TOF
Instrument: micrOTOF-Q
Ion_mode: POSITIVE
Collision_energy: 15 eV
Formula: C16H12O5
MW: 284
ExactMass: 284.068473484
Comments: Parent=285.171
Splash: splash10-03di-0970000000-693b2237dd0bd9c0de8f
Num Peaks: 75
89.039 82
90.046 87
91.053 17
95.058 15
96.021 37
102.046 40
103.053 45
105.050 12
108.022 17
111.008 27
115.055 63
116.056 11
117.052 11
118.042 182
119.048 23
121.039 37
123.044 58
124.016 279
125.017 27
128.061 19
129.066 29
130.045 47
131.049 42
132.051 24
133.063 67
135.045 11
137.024 11
139.052 20
140.059 24
141.069 57
144.052 22
145.061 44
149.024 43
152.011 191
153.017 223
154.023 19
155.046 21
157.058 35
158.038 241
159.044 39
160.051 20
168.057 72
169.064 49
170.026 24
171.044 41
172.048 21
173.063 14
183.053 16
184.053 26
185.060 134
186.065 69
187.063 16
196.049 26
197.058 155
198.060 27
200.048 16
211.060 15
213.053 999
214.057 172
215.056 22
216.044 35
217.048 12
224.046 19
225.055 63
226.060 13
227.041 18
229.083 30
241.048 248
242.056 231
243.057 40
253.049 90
254.049 16
269.044 175
270.047 63
271.054 11

Name: Genistein
Synon: 5,7-dihydroxy-3-(4-hydroxyphenyl)chromen-4-one
DB#: MSBNK-IPB_Halle-PB000881
InChIKey: TZBJGXHYKVUXJN-UHFFFAOYSA-N
InChI: InChI=1S/C15H10O5/c16-9-3-1-8(2-4-9)11-7-20-13-6-10(17)5-12(18)14(13)15(11)19/h1-7,16-18H
SMILES: C1=CC(=CC=C1C2=COC3=CC(=CC(=C3C2=O)O)O)O
Precursor_type: [M+H]+
Spectrum_type: MS2
Instrument_type: LC-ESI-QTOF
Instrument: API QSTAR Pulsar i
Ion_mode: POSITIVE
Collision_energy: 15 eV
Formula: C15H10O5
MW: 270
ExactMass: 270.05282
Comments: Parent=-1
Splash: splash10-00di-0090000000-76a9cf3dd47ae8f37162
Num Peaks: 2
271.060 999
272.075 24

Name: Catechin
Synon: (2R,3S)-2-(3,4-dihydroxyphenyl)chroman-3,5,7-triol
DB#: MSBNK-IPB_Halle-PB001332
InChIKey: PFTAWBLQPZVEMU-DZGCQCFKSA-N
InChI: InChI=1S/C15H14O6/c16-8-4-11(18)9-6-13(20)15(21-14(9)5-8)7-1-2-10(17)12(19)3-7/h1-5,13,15-20H,6H2/t13-,15+/m0/s1
SMILES: C1[C@@H]([C@H](OC2=CC(=CC(=C21)O)O)C3=CC(=C(C=C3)O)O)O
Precursor_type: [M+H]+
Spectrum_type: MS2
Instrument_type: LC-ESI-QTOF
Instrument: API QSTAR Pulsar i
Ion_mode: POSITIVE
Collision_energy: 55 eV
Formula: C15H14O6
MW: 290
ExactMass: 290.07904
Comments: Parent=-1
Splash: splash10-00di-3900000000-c715b3c6b38903a4dcd3
Num Peaks: 32
53.040 21
55.019 121
65.039 80
67.055 45
68.997 94
71.013 11
77.039 87
79.055 8
81.034 6
83.051 33
91.055 145
93.035 56
95.051 43
97.032 13
103.055 16
105.036 80
107.049 13
111.045 135
115.054 181
119.049 217
121.031 20
123.043 999
124.046 20
127.038 9
131.049 24
133.063 25
137.026 33
139.040 309
143.049 52
147.044 140
161.063 35
163.042 14

Name: Salsolinol
Synon: (1S)-1-methyl-1,2,3,4-tetrahydroisoquinoline-6,7-diol
DB#: MSBNK-IPB_Halle-PB002163
InChIKey: IBRKLUSXDYATLG-LURJTMIESA-N
InChI: InChI=1S/C10H13NO2/c1-6-8-5-10(13)9(12)4-7(8)2-3-11-6/h4-6,11-13H,2-3H2,1H3/t6-/m0/s1
SMILES: C[C@H]1C2=CC(=C(C=C2CCN1)O)O
Precursor_type: [M+H]+
Spectrum_type: MS2
Instrument_type: LC-ESI-QQ
Instrument: TSQ 7000
Ion_mode: POSITIVE
Collision_energy: 20 eV
Formula: C10H13NO2
MW: 179
ExactMass: 179.09463
Comments: Parent=-1
Splash: splash10-03ea-0900000000-bbaa7aafe08efa5dc301
Num Peaks: 43
29.000 0
30.000 1
31.000 0
43.000 0
44.000 10
45.000 2
57.000 14
58.000 2
69.000 5
70.000 0
78.000 0
79.000 0
91.000 5
92.000 0
93.000 0
98.000 0
105.000 2
107.000 0
115.000 14
116.000 2
117.000 182
118.000 0
119.000 2
123.000 0
127.000 13
128.000 0
133.000 0
134.000 1
135.000 15
136.000 1
137.000 101
138.000 3
139.000 29
140.000 9
145.000 668
148.000 0
151.000 34
152.000 2
162.000 2
163.000 999
164.000 9
180.000 910
181.000 4

Name: Marchantin G 4
Synon: Marchantin G
Synon: 4,5,17-trihydroxy-2,15-dioxapentacyclo[22.2.2.13,7.110,14.016,21]triaconta-1(26),3(30),4,6,10(29),11,13,16(21),17,19,24,27-dodecaen-8-one
DB#: MSBNK-IPB_Halle-PB010501
InChIKey: CUIZSIJMLPQKRE-UHFFFAOYSA-N
InChI: InChI=1S/C28H22O6/c29-23-6-2-4-19-10-7-17-8-11-21(12-9-17)33-26-16-20(15-25(31)27(26)32)24(30)14-18-3-1-5-22(13-18)34-28(19)23/h1-6,8-9,11-13,15-16,29,31-32H,7,10,14H2
SMILES: C1CC2=C(C(=CC=C2)O)OC3=CC=CC(=C3)CC(=O)C4=CC(=C(C(=C4)O)O)OC5=CC=C1C=C5
Precursor_type: [M+H]+
Spectrum_type: MS2
PrecursorMZ: 455.1489
Instrument_type: LC-ESI-QTOF
Instrument: Bruker MicrOTOF-Q
Ion_mode: POSITIVE
Collision_energy: 31.6361675
Formula: C28H22O6
MW: 454
ExactMass: 454.142
Comments: Parent=455.1489
Splash: splash10-056r-0192100000-5510305e0901b2b47400
Num Peaks: 225
107.05 1
115.06 1
119.05 1
121.06 7
123.04 24
124.04 2
129.07 1
131.05 1
133.03 2
135.04 14
136.05 4
137.02 1
137.06 2
138.02 1
139.04 13
141.07 3
145.1 1
149.02 1
151.04 3
152.06 3
153.07 8
155.08 8
157.07 2
158.07 2
159.11 1
160.05 1
161.06 1
163.04 1
163.14 1
164.07 3
165.07 15
166.07 4
167.09 6
168.06 4
169.07 13
170.07 4
171.08 4
172.09 1
173.08 1
174.06 1
175.04 1
175.11 1
177.07 2
177.15 1
178.07 6
179.08 10
180.06 2
181.07 48
182.07 15
183.08 50
184.08 9
185.06 9
186.07 1
187.08 3
187.15 1
189.06 4
190.07 1
191.09 2
192.09 2
193.06 15
194.07 9
195.08 22
196.06 5
197.06 47
198.07 23
199.07 39
200.07 3
201.09 6
202.07 1
203.08 3
204.09 3
205.07 7
206.07 9
207.08 21
208.09 4
209.06 40
210.07 49
211.08 136
212.08 38
213.06 547
214.06 84
215.07 67
216.07 9
217.07 6
218.07 2
219.08 3
219.17 1
221.06 14
222.07 12
223.08 49
224.08 42
225.07 49
226.06 999
227.07 369
228.07 70
229.09 115
230.09 16
231.09 4
233.06 2
234.07 2
235.08 20
236.08 11
237.08 3
238.06 19
239.07 547
240.08 265
241.08 98
242.09 13
243.1 16
244.11 3
245.09 2
246.09 1
247.08 3
250.06 2
251.07 6
252.08 5
253.09 72
254.09 14
255.08 4
256.09 6
257.1 11
258.1 3
259.1 5
260.08 1
261.09 3
263.07 3
264.08 2
265.09 5
266.08 2
268.09 4
269.1 6
270.1 4
271.11 9
273.09 3
274.09 4
275.11 4
277.09 2
278.09 2
279.08 2
280.1 1
281.1 3
283.11 4
284.09 6
285.09 16
286.1 6
287.11 14
288.1 3
289.09 7
290.11 2
291.1 3
292.1 1
293.08 1
295.08 1
296.08 2
297.09 9
298.09 6
299.11 14
300.1 6
301.09 10
302.1 8
303.1 54
304.11 26
305.11 8
307.1 5
308.1 1
309.09 1
311.1 4
312.11 6
313.09 18
314.09 7
315.1 39
316.1 16
317.11 66
318.1 8
319.1 14
320.1 6
321.11 8
322.11 1
325.08 3
326.1 2
327.1 5
328.08 4
329.09 10
330.12 23
331.1 62
332.1 14
333.11 71
334.11 18
335.1 7
336.1 16
337.1 4
343.1 6
344.1 8
345.11 15
346.1 10
347.09 224
348.1 62
349.11 106
350.11 20
351.11 5
361.11 16
362.11 41
363.11 7
364.09 3
365.11 2
377.11 1
381.15 1
391.14 3
394.12 2
395.11 1
409.14 10
410.15 3
414.13 1
419.13 3
422.12 2
423.14 1
427.15 11
428.15 3
437.14 15
438.14 4
440.13 3
453.14 5
454.14 2
455.15 782
457.15 44

Name: Apigenin 7-O-glucosylglucoside
DB#: MSBNK-IPB_Halle-PN000056
InChIKey: YONLJLRPNAUKHY-MDQCKWPLSA-N
InChI: InChI=1S/C27H30O15/c28-8-17-20(33)21(34)23(36)27(40-17)42-25-18(9-29)41-26(24(37)22(25)35)38-12-5-13(31)19-14(32)7-15(39-16(19)6-12)10-1-3-11(30)4-2-10/h1-7,17-18,20-31,33-37H,8-9H2/t17-,18-,20-,21+,22-,23-,24-,25-,26?,27?/m0/s1
SMILES: C1=CC(=CC=C1C2=CC(=O)C3=C(C=C(C=C3O2)OC4[C@H]([C@@H]([C@H]([C@@H](O4)CO)OC5[C@H]([C@@H]([C@H]([C@@H](O5)CO)O)O)O)O)O)O)O
Precursor_type: [M+H]+
Spectrum_type: MS2
PrecursorMZ: 595.171
Instrument_type: ESI-TOF
Instrument: micrOTOF-Q
Ion_mode: POSITIVE
Collision_energy: 15 eV
Formula: C27H30O15
MW: 594
ExactMass: 594.15847026
Comments: Parent=595.171
Splash: splash10-00di-0090000000-ec90ac2b7a1e0cf4af4f
Num Peaks: 5
271.0607 999
272.0628 115
273.0699 24
433.1136 74
595.1602 18

Name: Luteone O-glucosylglucoside
DB#: MSBNK-IPB_Halle-PN000080
InChI: N/A
SMILES: N/A
Precursor_type: [M+H]+
Spectrum_type: MS2
PrecursorMZ: 679.223
Instrument_type: ESI-TOF
Instrument: micrOTOF-Q
Ion_mode: POSITIVE
Collision_energy: 15 eV
Formula: C32H38O16
MW: 678
ExactMass: 678.2159851360001
Comments: Parent=679.223
Splash: splash10-02t9-0001690000-13c6dc35c1beac6e732f
Num Peaks: 10
299.0602 69
355.1214 246
356.1276 43
461.1074 728
462.1110 159
463.1226 41
517.1719 999
518.1733 324
519.1734 56
679.2225 103

Name: 2'-Hydroxygenistein C-glucoside malonylated
Synon: 2'Hydroxygenistein C-glucoside malonylated
DB#: MSBNK-IPB_Halle-PN000024
InChI: N/A
SMILES: N/A
Precursor_type: [M+H]+
Spectrum_type: MS2
PrecursorMZ: 535.103
Instrument_type: ESI-TOF
Instrument: micrOTOF-Q
Ion_mode: POSITIVE
Collision_energy: 15 eV
Formula: C24H22O14
MW: 534
ExactMass: 534.1009553839999
Comments: Parent=535.103
Splash: splash10-000i-0001490000-dfb5d5ad36235a06af38
Num Peaks: 18
299.0516 36
329.0687 75
367.0825 41
383.0763 118
395.0787 120
413.0833 364
414.0909 105
431.0931 36
439.0607 40
455.0894 30
473.1002 87
474.1027 42
491.1124 28
517.0952 295
518.0959 57
535.1041 999
536.1086 193
537.1050 57

Name: Tyramine
Synon: 4-(2-aminoethyl)phenol
DB#: MSBNK-IPB_Halle-PB000473
InChIKey: DZGWFCGJZKJUFP-UHFFFAOYSA-N
InChI: InChI=1S/C8H11NO/c9-6-5-7-1-3-8(10)4-2-7/h1-4,10H,5-6,9H2
SMILES: C1=CC(=CC=C1CCN)O
Precursor_type: [M+H]+
Spectrum_type: MS2
Instrument_type: LC-ESI-QTOF
Instrument: API QSTAR Pulsar i
Ion_mode: POSITIVE
Collision_energy: 15 eV
Formula: C8H11NO
MW: 137
ExactMass: 137.08406
Comments: Parent=-1
Splash: splash10-00dr-0900000000-bfcd519d8cca540e68d4
Num Peaks: 2
121.065 999
138.091 509

Name: Methionine
Synon: 2-amino-4-methylsulfanylbutanoic acid
DB#: MSBNK-IPB_Halle-PB000442
InChIKey: FFEARJCKVFRZRR-UHFFFAOYSA-N
InChI: InChI=1S/C5H11NO2S/c1-9-3-2-4(6)5(7)8/h4H,2-3,6H2,1H3,(H,7,8)
SMILES: CSCCC(C(=O)O)N
Precursor_type: [M+H]+
Spectrum_type: MS2
Instrument_type: LC-ESI-QTOF
Instrument: API QSTAR Pulsar i
Ion_mode: POSITIVE
Collision_energy: 20 eV
Formula: C5H11NO2S
MW: 149
ExactMass: 149.05105
Comments: Parent=-1
Splash: splash10-0zfr-9800000000-9f63601c65b44c2e05da
Num Peaks: 10
56.051 999
61.012 437
74.060 78
84.045 41
85.029 31
87.027 106
102.056 244
104.055 798
133.033 436
150.054 64

Name: Epicatechin
Synon: (2R,3R)-2-(3,4-dihydroxyphenyl)chroman-3,5,7-triol
DB#: MSBNK-IPB_Halle-PB001338
InChIKey: PFTAWBLQPZVEMU-UKRRQHHQSA-N
InChI: InChI=1S/C15H14O6/c16-8-4-11(18)9-6-13(20)15(21-14(9)5-8)7-1-2-10(17)12(19)3-7/h1-5,13,15-20H,6H2/t13-,15-/m1/s1
SMILES: C1[C@H]([C@H](OC2=CC(=CC(=C21)O)O)C3=CC(=C(C=C3)O)O)O
Precursor_type: [M+H]+
Spectrum_type: MS2
Instrument_type: LC-ESI-QTOF
Instrument: API QSTAR Pulsar i
Ion_mode: POSITIVE
Collision_energy: 25 eV
Formula: C15H14O6
MW: 290
ExactMass: 290.07904
Comments: Parent=-1
Splash: splash10-0079-0900000000-e919c87b2826d70f24b0
Num Peaks: 16
95.052 11
119.049 24
123.043 571
139.039 999
140.042 16
147.043 219
151.039 30
161.062 51
163.042 27
165.057 170
169.052 23
179.073 41
181.055 15
189.058 16
207.068 165
249.079 16

Name: Indole-3-acetyl-L-valine
Synon: (2S)-2-[[2-(1H-indol-3-yl)acetyl]amino]-3-methylbutanoic acid
DB#: MSBNK-IPB_Halle-PB000551
InChIKey: AZEGJHGXTSUPPG-AWEZNQCLSA-N
InChI: InChI=1S/C15H18N2O3/c1-9(2)14(15(19)20)17-13(18)7-10-8-16-12-6-4-3-5-11(10)12/h3-6,8-9,14,16H,7H2,1-2H3,(H,17,18)(H,19,20)/t14-/m0/s1
SMILES: CC(C)[C@@H](C(=O)O)NC(=O)CC1=CNC2=CC=CC=C21
Precursor_type: [M+H]+
Spectrum_type: MS2
Instrument_type: LC-ESI-QTOF
Instrument: API QSTAR Pulsar i
Ion_mode: POSITIVE
Collision_energy: 15 eV
Formula: C15H18N2O3
MW: 274
ExactMass: 274.13174
Comments: Parent=-1
Splash: splash10-004i-0190000000-f3da96c4a9eb3c5eb8b9
Num Peaks: 6
72.079 32
118.087 141
130.065 119
229.133 999
257.120 100
275.138 933

Name: Naringenin
Synon: 5,7-dihydroxy-2-(4-hydroxyphenyl)chroman-4-one
DB#: MSBNK-IPB_Halle-PB002402
InChIKey: FTVWIRXFELQLPI-ZDUSSCGKSA-N
InChI: InChI=1S/C15H12O5/c16-9-3-1-8(2-4-9)13-7-12(19)15-11(18)5-10(17)6-14(15)20-13/h1-6,13,16-18H,7H2/t13-/m0/s1
SMILES: C1[C@H](OC2=CC(=CC(=C2C1=O)O)O)C3=CC=C(C=C3)O
Precursor_type: [M-H]-
Spectrum_type: MS2
Instrument_type: LC-ESI-QTOF
Instrument: API QSTAR Pulsar i
Ion_mode: NEGATIVE
Collision_energy: 25 eV
Formula: C15H12O5
MW: 272
ExactMass: 272.06847
Comments: Parent=-1
Splash: splash10-0udi-0920000000-1e3e8e023b602f04a339
Num Peaks: 13
83.014 14
93.035 86
107.017 170
119.050 492
125.024 15
145.031 13
151.003 999
165.021 51
169.012 22
177.017 151
185.058 9
227.071 31
271.061 425

Name: Catechin
Synon: (2R,3S)-2-(3,4-dihydroxyphenyl)chroman-3,5,7-triol
DB#: MSBNK-IPB_Halle-PB002432
InChIKey: PFTAWBLQPZVEMU-DZGCQCFKSA-N
InChI: InChI=1S/C15H14O6/c16-8-4-11(18)9-6-13(20)15(21-14(9)5-8)7-1-2-10(17)12(19)3-7/h1-5,13,15-20H,6H2/t13-,15+/m0/s1
SMILES: C1[C@@H]([C@H](OC2=CC(=CC(=C21)O)O)C3=CC(=C(C=C3)O)O)O
Precursor_type: [M-H]-
Spectrum_type: MS2
Instrument_type: LC-ESI-QTOF
Instrument: API QSTAR Pulsar i
Ion_mode: NEGATIVE
Collision_energy: 55 eV
Formula: C15H14O6
MW: 290
ExactMass: 290.07904
Comments: Parent=-1
Splash: splash10-0ab9-2900000000-cdc087827d67b78d4ac2
Num Peaks: 61
55.019 68
57.033 317
65.039 16
67.018 22
69.033 142
77.037 11
80.023 29
81.031 91
83.010 147
91.018 16
93.031 149
95.047 142
96.019 14
97.027 193
105.036 57
107.051 25
108.023 298
109.030 999
115.056 10
117.034 88
119.049 14
120.020 19
121.028 150
122.036 289
123.043 660
125.022 77
129.034 7
130.038 19
131.048 35
132.019 10
133.028 39
134.036 24
135.044 114
137.024 163
138.032 13
139.040 57
143.049 14
145.030 97
146.038 48
147.044 27
148.017 21
149.026 47
150.031 67
151.039 39
157.066 17
158.038 45
159.045 188
160.053 29
161.058 33
162.032 22
163.036 18
164.011 35
172.049 12
173.057 86
174.031 16
175.057 44
183.041 14
185.057 10
187.035 44
188.043 15
201.048 26

Name: 4-methoxy-1H-indole-3-carbaldehyde
DB#: MSBNK-IPB_Halle-PB000530
InChIKey: GDVCEQRAPMIJBG-UHFFFAOYSA-N
InChI: InChI=1S/C10H9NO2/c1-13-9-4-2-3-8-10(9)7(6-12)5-11-8/h2-6,11H,1H3
SMILES: COC1=CC=CC2=C1C(=CN2)C=O
Precursor_type: [M+H]+
Spectrum_type: MS2
PrecursorMZ: 176.07115
Instrument_type: LC-ESI-QTOF
Instrument: API QSTAR Pulsar i
Ion_mode: POSITIVE
Collision_energy: 55 eV
Formula: C10H9NO2
MW: 175
ExactMass: 175.06333
Comments: Parent=176.07115
Splash: splash10-0udi-1900000000-9c593231fcc45b70e2db
Num Peaks: 12
77.038 72
78.037 71
89.038 114
91.054 30
103.043 50
104.050 999
105.057 65
114.034 26
117.057 57
131.035 62
132.043 103
160.039 230

Name: Rutin
Synon: 2-(3,4-dihydroxyphenyl)-5,7-dihydroxy-3-[(2S,3R,4S,5S,6R)-3,4,5-trihydroxy-6-[[(2R,3R,4R,5R,6S)-3,4,5-trihydroxy-6-methyloxan-2-yl]oxymethyl]oxan-2-yl]oxychromen-4-one
DB#: MSBNK-IPB_Halle-PB006203
InChIKey: IKGXIBQEEMLURG-NVPNHPEKSA-N
InChI: InChI=1S/C27H30O16/c1-8-17(32)20(35)22(37)26(40-8)39-7-15-18(33)21(36)23(38)27(42-15)43-25-19(34)16-13(31)5-10(28)6-14(16)41-24(25)9-2-3-11(29)12(30)4-9/h2-6,8,15,17-18,20-23,26-33,35-38H,7H2,1H3/t8-,15+,17-,18+,20+,21-,22+,23+,26+,27-/m0/s1
SMILES: C[C@H]1[C@@H]([C@H]([C@H]([C@@H](O1)OC[C@@H]2[C@H]([C@@H]([C@H]([C@@H](O2)OC3=C(OC4=CC(=CC(=C4C3=O)O)O)C5=CC(=C(C=C5)O)O)O)O)O)O)O)O
Precursor_type: [M+H]+
Spectrum_type: MS2
Instrument_type: LC-ESI-QTOF
Instrument: micrOTOF-Q
Ion_mode: POSITIVE
Collision_energy: 20 eV
Formula: C27H30O16
MW: 610
ExactMass: 610.15338
Comments: Parent=-1
Splash: splash10-0udi-0009000000-707a876bedc341afce24
Num Peaks: 8
129.054 0
302.841 0
303.048 999
303.434 0
304.051 110
305.053 4
465.098 9
466.101 1

Name: Spermidine
Synon: N-(3-aminopropyl)butane-1,4-diamine
DB#: MSBNK-IPB_Halle-PB000486
InChIKey: ATHGHQPFGPMSJY-UHFFFAOYSA-N
InChI: InChI=1S/C7H19N3/c8-4-1-2-6-10-7-3-5-9/h10H,1-9H2
SMILES: C(CCNCCCN)CN
Precursor_type: [M+H]+
Spectrum_type: MS2
Instrument_type: LC-ESI-QTOF
Instrument: API QSTAR Pulsar i
Ion_mode: POSITIVE
Collision_energy: 45 eV
Formula: C7H19N3
MW: 145
ExactMass: 145.15790
Comments: Parent=-1
Splash: splash10-00di-9000000000-53ef0689f6b4e47cb1a3
Num Peaks: 19
39.025 5
41.041 15
42.036 52
43.045 6
44.052 13
53.042 6
55.057 166
56.052 25
58.068 186
65.041 93
70.068 18
72.082 999
84.084 457
89.042 24
90.048 43
91.057 254
112.116 5
117.061 67
118.070 9

Name: IAA-Val , Indole-3-acetyl-L-valine
Synon: (2S)-2-[[2-(1H-indol-3-yl)acetyl]amino]-3-methylbutanoic acid
DB#: MSBNK-IPB_Halle-PB005789
InChIKey: AZEGJHGXTSUPPG-AWEZNQCLSA-N
InChI: InChI=1S/C15H18N2O3/c1-9(2)14(15(19)20)17-13(18)7-10-8-16-12-6-4-3-5-11(10)12/h3-6,8-9,14,16H,7H2,1-2H3,(H,17,18)(H,19,20)/t14-/m0/s1
SMILES: CC(C)[C@@H](C(=O)O)NC(=O)CC1=CNC2=CC=CC=C21
Precursor_type: [M+H]+
Spectrum_type: MS2
Instrument_type: LC-ESI-QTOF
Instrument: micrOTOF-Q
Ion_mode: POSITIVE
Collision_energy: 15 eV
Formula: C15H18N2O3
MW: 274
ExactMass: 274.13174
Comments: Parent=-1
Splash: splash10-001i-0910000000-430fa83cd3f33d4b2c0f
Num Peaks: 12
118.086 2
128.048 3
130.064 999
131.066 67
132.071 0
146.058 2
158.059 5
229.131 179
230.134 19
257.125 0
275.137 5
276.138 0

Name: Vitexin
Synon: Apigenin-8-C-glucoside
DB#: MSBNK-IPB_Halle-PN000128
InChIKey: SGEWCQFRYRRZDC-VPRICQMDSA-N
InChI: InChI=1S/C21H20O10/c22-7-14-17(27)18(28)19(29)21(31-14)16-11(25)5-10(24)15-12(26)6-13(30-20(15)16)8-1-3-9(23)4-2-8/h1-6,14,17-19,21-25,27-29H,7H2/t14-,17-,18+,19-,21+/m1/s1
SMILES: C1=CC(=CC=C1C2=CC(=O)C3=C(O2)C(=C(C=C3O)O)[C@H]4[C@@H]([C@H]([C@@H]([C@H](O4)CO)O)O)O)O
Precursor_type: [M+H]+
Spectrum_type: MS2
PrecursorMZ: 433.113
Instrument_type: ESI-TOF
Instrument: micrOTOF-Q
Ion_mode: POSITIVE
Collision_energy: 15 eV
Formula: C21H20O10
MW: 432
ExactMass: 432.10564683999996
Comments: Parent=433.113
Splash: splash10-00kb-0009400000-d99a3ff9b2c386994105
Num Peaks: 27
283.0588 124
284.0612 22
295.0606 29
311.0594 14
313.0703 450
314.0735 68
323.0906 25
337.0692 60
338.0733 21
343.0782 52
351.0896 62
352.0824 14
355.0786 29
367.0796 245
368.0849 54
369.0963 15
379.0808 233
380.0870 45
397.0923 999
398.0965 167
399.1020 34
415.1028 695
416.1046 126
417.1095 24
433.1135 307
434.1152 54
435.1176 18

Name: Phenylalanine
Synon: 2-amino-3-phenylpropanoic acid
DB#: MSBNK-IPB_Halle-PB000407
InChIKey: COLNVLDHVKWLRT-QMMMGPOBSA-N
InChI: InChI=1S/C9H11NO2/c10-8(9(11)12)6-7-4-2-1-3-5-7/h1-5,8H,6,10H2,(H,11,12)/t8-/m0/s1
SMILES: C1=CC=C(C=C1)C[C@@H](C(=O)O)N
Precursor_type: [M+H]+
Spectrum_type: MS2
Instrument_type: LC-ESI-QTOF
Instrument: API QSTAR Pulsar i
Ion_mode: POSITIVE
Collision_energy: 15 eV
Formula: C9H11NO2
MW: 165
ExactMass: 165.07898
Comments: Parent=-1
Splash: splash10-00di-0900000000-6ca8e29805bf8d189cf2
Num Peaks: 7
103.055 12
107.050 5
120.083 999
121.085 3
131.050 33
149.060 38
166.089 242

Name: Aloin
Synon: 1,8-dihydroxy-3-(hydroxymethyl)-10-[3,4,5-trihydroxy-6-(hydroxymethyl)oxan-2-yl]-10H-anthracen-9-one
DB#: MSBNK-IPB_Halle-PB006162
InChIKey: AFHJQYHRLPMKHU-UHFFFAOYSA-N
InChI: InChI=1S/C21H22O9/c22-6-8-4-10-14(21-20(29)19(28)17(26)13(7-23)30-21)9-2-1-3-11(24)15(9)18(27)16(10)12(25)5-8/h1-5,13-14,17,19-26,28-29H,6-7H2
SMILES: C1=CC2=C(C(=C1)O)C(=O)C3=C(C=C(C=C3C2C4C(C(C(C(O4)CO)O)O)O)CO)O
Precursor_type: [M+H]+
Spectrum_type: MS2
Instrument_type: LC-ESI-QTOF
Instrument: micrOTOF-Q
Ion_mode: POSITIVE
Collision_energy: 20 eV
Formula: C21H22O9
MW: 418
ExactMass: 418.12638
Comments: Parent=-1
Splash: splash10-01p9-0090000000-683d7650547bc0b64290
Num Peaks: 100
127.039 2
147.606 0
155.974 0
164.822 0
169.059 0
171.554 0
183.086 0
193.072 1
196.914 0
197.250 0
201.597 0
209.050 1
211.074 575
211.156 3
211.347 0
211.422 0
211.693 0
212.077 73
212.147 0
212.177 0
213.078 0
221.056 2
222.059 0
226.064 12
227.067 47
228.068 2
235.074 0
238.062 1
238.875 1
238.907 1
238.959 0
239.002 1
239.068 999
239.177 1
239.206 0
240.070 127
241.077 12
241.940 0
251.065 0
255.064 19
256.067 6
257.078 280
257.162 0
257.204 0
258.083 28
263.067 11
265.082 1
267.065 4
269.074 2
270.081 1
275.060 0
277.083 2
279.067 2
280.098 0
281.073 7
282.416 1
285.076 3
285.932 0
289.174 0
291.126 1
293.089 7
294.077 1
295.102 0
301.089 0
304.901 0
305.070 1
306.088 3
308.058 1
311.108 0
312.050 0
317.074 3
317.399 0
319.088 2
319.394 0
320.062 0
321.078 1
323.032 0
323.082 0
335.089 0
339.101 1
347.096 0
353.858 0
355.043 0
356.061 0
358.648 0
358.796 0
359.340 0
360.219 0
365.092 1
365.172 0
383.363 0
391.011 0
398.514 0
479.145 0
484.047 0
493.965 0
531.972 0
533.091 0
557.009 0
661.899 0

Name: Cystine
Synon: 2-amino-3-(2-amino-3-hydroxy-3-oxopropyl)disulfanylpropanoic acid
DB#: MSBNK-IPB_Halle-PB000447
InChIKey: LEVWYRKDKASIDU-UHFFFAOYSA-N
InChI: InChI=1S/C6H12N2O4S2/c7-3(5(9)10)1-13-14-2-4(8)6(11)12/h3-4H,1-2,7-8H2,(H,9,10)(H,11,12)
SMILES: C(C(C(=O)O)N)SSCC(C(=O)O)N
Precursor_type: [M+H]+
Spectrum_type: MS2
Instrument_type: LC-ESI-QTOF
Instrument: API QSTAR Pulsar i
Ion_mode: POSITIVE
Collision_energy: 30 eV
Formula: C6H12N2O4S2
MW: 240
ExactMass: 240.02385
Comments: Parent=-1
Splash: splash10-00di-7900000000-17b6b9fe3f119730262f
Num Peaks: 35
55.021 7
55.058 10
57.072 7
58.997 2
67.057 3
69.073 21
71.086 3
73.029 29
74.024 977
75.025 5
76.023 32
78.970 4
79.056 1
81.073 4
83.087 8
84.962 35
86.993 9
88.040 17
90.056 0
92.018 46
93.072 4
95.087 3
97.103 6
102.984 6
105.003 33
105.982 3
107.995 6
120.012 999
121.015 8
121.102 3
122.028 308
136.974 17
151.984 194
154.000 5
177.997 5

Name: Asparagine
Synon: 2,4-diamino-4-oxobutanoic acid
DB#: MSBNK-IPB_Halle-PB000459
InChIKey: DCXYFEDJOCDNAF-UHFFFAOYSA-N
InChI: InChI=1S/C4H8N2O3/c5-2(4(8)9)1-3(6)7/h2H,1,5H2,(H2,6,7)(H,8,9)
SMILES: C(C(C(=O)O)N)C(=O)N
Precursor_type: [M+H]+
Spectrum_type: MS2
Instrument_type: LC-ESI-QTOF
Instrument: API QSTAR Pulsar i
Ion_mode: POSITIVE
Collision_energy: 30 eV
Formula: C4H8N2O3
MW: 132
ExactMass: 132.05349
Comments: Parent=-1
Splash: splash10-00di-9000000000-5f73c78400ed518db436
Num Peaks: 16
43.019 53
44.050 64
45.043 14
46.030 67
60.045 23
70.030 139
71.015 3
74.024 999
79.056 3
87.056 44
88.040 12
91.055 9
98.027 4
99.010 12
105.071 15
116.036 10

Name: Cinnamoylcholine
Synon: trimethyl-[2-[(E)-3-phenylprop-2-enoyl]oxyethyl]azanium
DB#: MSBNK-IPB_Halle-PB000350
InChIKey: JSIOTGHMQGLKET-MDZDMXLPSA-N
InChI: InChI=1S/C14H20NO2/c1-15(2,3)11-12-17-14(16)10-9-13-7-5-4-6-8-13/h4-10H,11-12H2,1-3H3/q+1/b10-9+
SMILES: C[N+](C)(C)CCOC(=O)/C=C/C1=CC=CC=C1
Precursor_type: [M]+
Spectrum_type: MS2
Instrument_type: LC-ESI-QTOF
Instrument: API QSTAR Pulsar i
Ion_mode: POSITIVE
Collision_energy: 40 eV
Formula: [C14H20NO2]+
MW: 234
ExactMass: 234.14940
Comments: Parent=-1
Splash: splash10-0f89-0900000000-6997048cf3db3f700a6f
Num Peaks: 3
103.055 687
131.050 999
175.077 163

Name: Aminocaproic acid
Synon: 6-aminohexanoic acid
DB#: MSBNK-IPB_Halle-PB000470
InChIKey: SLXKOJJOQWFEFD-UHFFFAOYSA-N
InChI: InChI=1S/C6H13NO2/c7-5-3-1-2-4-6(8)9/h1-5,7H2,(H,8,9)
SMILES: C(CCC(=O)O)CCN
Precursor_type: [M+H]+
Spectrum_type: MS2
Instrument_type: LC-ESI-QTOF
Instrument: API QSTAR Pulsar i
Ion_mode: POSITIVE
Collision_energy: 20 eV
Formula: C6H13NO2
MW: 131
ExactMass: 131.09463
Comments: Parent=-1
Splash: splash10-02ta-9400000000-538c560b9cc23892e021
Num Peaks: 16
41.040 20
55.056 24
67.056 23
68.051 34
69.071 999
71.050 15
72.081 9
73.066 163
79.055 371
84.082 12
86.098 20
96.083 261
97.067 305
114.093 881
115.077 74
132.103 142

Name: Bergapten
Synon: 4-methoxyfuro[3,2-g]chromen-7-one
DB#: MSBNK-IPB_Halle-PB006143
InChIKey: BGEBZHIAGXMEMV-UHFFFAOYSA-N
InChI: InChI=1S/C12H8O4/c1-14-12-7-2-3-11(13)16-10(7)6-9-8(12)4-5-15-9/h2-6H,1H3
SMILES: COC1=C2C=CC(=O)OC2=CC3=C1C=CO3
Precursor_type: [M+H]+
Spectrum_type: MS2
Instrument_type: LC-ESI-QTOF
Instrument: micrOTOF-Q
Ion_mode: POSITIVE
Collision_energy: 10 eV
Formula: C12H8O4
MW: 216
ExactMass: 216.04226
Comments: Parent=-1
Splash: splash10-014i-0090000000-927b1385246a4f40d60d
Num Peaks: 9
161.058 0
173.057 5
174.029 2
189.051 0
202.024 145
203.026 13
217.047 999
218.050 99
219.052 4

Name: Tryptophan
Synon: 2-amino-3-(1H-indol-3-yl)propanoic acid
DB#: MSBNK-IPB_Halle-PB000415
InChIKey: QIVBCDIJIAJPQS-UHFFFAOYSA-N
InChI: InChI=1S/C11H12N2O2/c12-9(11(14)15)5-7-6-13-10-4-2-1-3-8(7)10/h1-4,6,9,13H,5,12H2,(H,14,15)
SMILES: C1=CC=C2C(=C1)C(=CN2)CC(C(=O)O)N
Precursor_type: [M+H]+
Spectrum_type: MS2
Instrument_type: LC-ESI-QTOF
Instrument: API QSTAR Pulsar i
Ion_mode: POSITIVE
Collision_energy: 15 eV
Formula: C11H12N2O2
MW: 204
ExactMass: 204.08988
Comments: Parent=-1
Splash: splash10-000i-0900000000-6498c5755ea113ab1f07
Num Peaks: 10
57.071 6
118.068 5
132.081 8
144.082 8
146.062 68
149.025 53
159.094 24
188.073 999
189.077 16
205.100 104

Name: (8Z)-2,15-dioxapentacyclo[22.2.2.13,7.110,14.016,21]triaconta-3(30),4,6,8,10(29),11,13,16(21),17,19,25,27-dodecaene-4,5,17-triol 1
Synon: 7,8,19,20-Tetrahydro-15,18-etheno-2,6:9,13-dimetheno-1,14-benzodioxacyclodocosin-11,12,24-triol
Synon: (8Z)-2,15-dioxapentacyclo[22.2.2.13,7.110,14.016,21]triaconta-3(30),4,6,8,10(29),11,13,16(21),17,19,25,27-dodecaene-4,5,17-triol
DB#: MSBNK-IPB_Halle-PB011501
InChIKey: AZIYOMYZWLGWRM-FPLPWBNLSA-N
InChI: InChI=1S/C28H24O5/c29-24-6-2-4-21-12-9-18-10-13-22(14-11-18)32-26-17-20(16-25(30)27(26)31)8-7-19-3-1-5-23(15-19)33-28(21)24/h1-8,10-11,13-18,22,29-31H,9,12H2/b8-7-
SMILES: C1CC2=C(C(=CC=C2)O)OC3=CC=CC(=C3)/C=C\C4=CC(=C(C(=C4)O)O)OC5C=CC1C=C5
Precursor_type: [M+H]+
Spectrum_type: MS2
PrecursorMZ: 441.1697
Instrument_type: LC-ESI-QTOF
Instrument: Bruker MicrOTOF-Q
Ion_mode: POSITIVE
Collision_energy: 30.58772
Formula: C28H24O5
MW: 440
ExactMass: 440.162
Comments: Parent=441.1697
Splash: splash10-01t9-0291000000-e6e88de889584eb21a73
Num Peaks: 201
115.06 4
117.07 13
119.05 11
120.05 15
121.06 56
122.07 7
123.04 35
125.02 8
129.07 5
131.05 11
133.06 36
134.07 5
135.04 41
136.05 24
137.06 70
138.06 5
139.04 3
141.07 9
142.08 3
143.08 5
145.07 28
146.07 7
147.05 5
149.06 15
151.04 6
152.06 15
153.07 20
154.07 8
155.08 12
157.07 15
158.07 3
159.08 7
160.08 2
161.06 7
164.07 4
165.07 68
166.08 27
167.09 40
168.06 17
169.06 36
170.08 8
171.08 29
172.09 5
173.07 7
177.07 19
178.08 21
179.09 43
180.09 8
181.07 156
182.07 57
183.08 277
184.08 45
185.1 49
186.08 6
187.08 15
188.08 2
189.07 3
191.08 18
192.1 7
193.07 51
194.08 57
195.08 151
196.06 94
197.06 254
198.07 99
199.08 439
200.08 67
201.09 26
202.08 3
203.08 8
204.09 2
205.07 4
206.07 10
207.08 59
208.09 31
209.07 187
210.07 183
211.08 999
211.98 3
212.08 518
212.97 4
213.09 729
214.09 97
215.07 426
216.08 70
217.08 5
219.08 12
220.09 11
221.1 76
222.1 20
223.08 134
224.09 488
225.09 846
226.09 290
227.07 684
228.08 491
229.09 865
230.09 130
231.09 12
235.08 15
236.08 6
237.09 83
238.1 54
239.11 941
239.97 3
240.09 247
241.09 671
242.09 133
243.08 32
244.08 10
245.09 5
249.09 4
251.07 4
253.09 18
254.09 27
255.1 400
256.11 77
257.1 14
258.1 3
259.11 7
260.08 5
261.1 5
263.1 4
264.12 2
265.1 7
267.12 2
268.09 3
269.09 6
269.16 2
270.1 3
271.11 6
272.09 5
273.11 8
274.11 4
275.11 11
276.11 5
277.11 4
278.12 4
283.12 35
284.12 11
285.11 7
286.1 12
287.11 17
288.12 12
289.12 10
290.12 4
291.12 5
292.11 3
293.11 5
294.11 3
296.09 5
297.09 9
298.1 6
299.11 37
300.12 12
301.12 80
302.13 30
303.13 22
304.13 10
305.12 16
306.12 6
307.12 3
311.11 34
312.12 11
313.12 14
314.11 29
315.11 50
316.14 37
317.12 103
318.12 22
319.13 253
320.14 55
321.14 11
322.12 15
328.11 4
329.12 80
330.12 47
331.13 36
332.13 35
333.12 274
334.12 78
335.13 84
336.13 23
337.13 6
345.11 4
346.11 5
347.13 110
348.14 275
349.14 65
350.14 12
371.16 3
395.16 7
396.17 3
405.14 5
412.14 4
423.16 40
424.17 10
426.14 3
439.16 47
440.16 9
441.17 68

Name: Quercetin
Synon: 2-(3,4-dihydroxyphenyl)-3,5,7-trihydroxychromen-4-one
DB#: MSBNK-IPB_Halle-PB004083
InChIKey: REFJWTPEDVJJIY-UHFFFAOYSA-N
InChI: InChI=1S/C15H10O7/c16-7-4-10(19)12-11(5-7)22-15(14(21)13(12)20)6-1-2-8(17)9(18)3-6/h1-5,16-19,21H
SMILES: C1=CC(=C(C=C1C2=C(C(=O)C3=C(C=C(C=C3O2)O)O)O)O)O
Precursor_type: [M+H]+
Spectrum_type: MS2
Instrument_type: LC-ESI-QQ
Instrument: TSQ QUANTUM AM
Ion_mode: POSITIVE
Collision_energy: 25 eV
Formula: C15H10O7
MW: 302
ExactMass: 302.04265
Comments: Parent=-1
Splash: splash10-0udi-0459000000-0d9988aa4ad6d4f3877f
Num Peaks: 68
69.000 2
81.000 0
93.000 4
95.000 0
99.000 0
101.000 1
107.000 1
109.000 8
111.000 23
117.000 1
121.000 20
123.000 2
127.000 3
131.000 3
133.000 0
135.000 2
137.000 76
145.000 4
149.000 16
151.000 0
153.000 97
155.000 5
157.000 1
159.000 1
161.000 10
163.000 18
165.000 113
166.000 14
167.000 1
173.000 13
177.000 5
179.000 3
183.000 17
185.000 0
187.000 14
189.000 1
191.000 9
193.000 2
194.000 0
195.000 10
201.000 65
205.000 6
207.000 0
211.000 4
213.000 9
215.000 5
217.000 1
218.000 0
219.000 15
221.000 3
223.000 0
228.000 3
229.000 213
231.000 0
232.000 0
233.000 0
235.000 0
239.000 4
241.000 0
243.000 0
245.000 0
247.000 29
257.000 125
258.000 0
274.000 30
275.000 7
285.000 63
303.000 999

Name: Adenosine
Synon: (2R,3R,4S,5R)-2-(6-aminopurin-9-yl)-5-(hydroxymethyl)oxolane-3,4-diol
DB#: MSBNK-IPB_Halle-PB006010
InChIKey: OIRDTQYFTABQOQ-KQYNXXCUSA-N
InChI: InChI=1S/C10H13N5O4/c11-8-5-9(13-2-12-8)15(3-14-5)10-7(18)6(17)4(1-16)19-10/h2-4,6-7,10,16-18H,1H2,(H2,11,12,13)/t4-,6-,7-,10-/m1/s1
SMILES: C1=NC(=C2C(=N1)N(C=N2)[C@H]3[C@@H]([C@@H]([C@H](O3)CO)O)O)N
Precursor_type: [M+H]+
Spectrum_type: MS2
Instrument_type: LC-ESI-QTOF
Instrument: micrOTOF-Q
Ion_mode: POSITIVE
Collision_energy: 15 eV
Formula: C10H13N5O4
MW: 267
ExactMass: 267.09675
Comments: Parent=-1
Splash: splash10-000i-0900000000-b9c204c25a40d0b9d54e
Num Peaks: 6
119.034 8
136.060 999
137.062 54
138.064 0
268.101 38
269.103 3

Name: Dopamine
Synon: 4-(2-aminoethyl)benzene-1,2-diol
DB#: MSBNK-IPB_Halle-PB000481
InChIKey: VYFYYTLLBUKUHU-UHFFFAOYSA-N
InChI: InChI=1S/C8H11NO2/c9-4-3-6-1-2-7(10)8(11)5-6/h1-2,5,10-11H,3-4,9H2
SMILES: C1=CC(=C(C=C1CCN)O)O
Precursor_type: [M+H]+
Spectrum_type: MS2
Instrument_type: LC-ESI-QTOF
Instrument: API QSTAR Pulsar i
Ion_mode: POSITIVE
Collision_energy: 40 eV
Formula: C8H11NO2
MW: 153
ExactMass: 153.07898
Comments: Parent=-1
Splash: splash10-0006-9000000000-fdcbbd6eae324ae068b8
Num Peaks: 11
41.040 5
53.040 4
63.024 10
65.039 496
77.038 4
79.054 16
81.070 8
91.054 999
94.042 9
119.048 34
137.056 3

Name: Kaempferol
Synon: 3,5,7-trihydroxy-2-(4-hydroxyphenyl)chromen-4-one
DB#: MSBNK-IPB_Halle-PB004141
InChIKey: IYRMWMYZSQPJKC-UHFFFAOYSA-N
InChI: InChI=1S/C15H10O6/c16-8-3-1-7(2-4-8)15-14(20)13(19)12-10(18)5-9(17)6-11(12)21-15/h1-6,16-18,20H
SMILES: C1=CC(=CC=C1C2=C(C(=O)C3=C(C=C(C=C3O2)O)O)O)O
Precursor_type: [M-H]-
Spectrum_type: MS2
Instrument_type: LC-ESI-QQ
Instrument: TSQ QUANTUM AM
Ion_mode: NEGATIVE
Collision_energy: 30 eV
Formula: C15H10O6
MW: 286
ExactMass: 286.04774
Comments: Parent=-1
Splash: splash10-000i-0890000000-52e326989e3c5afe200b
Num Peaks: 116
65.000 4
67.000 1
79.000 0
83.000 10
91.000 1
92.000 4
93.000 68
95.000 4
105.000 9
107.000 30
108.000 17
109.000 35
115.000 4
116.000 1
117.000 35
119.000 17
120.000 11
121.000 6
123.000 10
124.000 0
127.000 0
129.000 4
130.000 15
131.000 24
132.000 2
133.000 23
134.000 0
135.000 29
136.000 13
137.000 34
139.000 1
141.000 11
142.000 0
143.000 67
145.000 72
146.000 4
147.000 8
148.000 2
149.000 2
151.000 26
152.000 2
153.000 4
154.000 72
155.000 48
156.000 18
157.000 77
158.000 18
159.000 117
160.000 0
161.000 61
162.000 1
163.000 43
164.000 30
165.000 9
167.000 60
168.000 25
169.000 73
170.000 5
171.000 112
172.000 3
173.000 60
174.000 9
175.000 5
179.000 4
181.000 1
182.000 11
183.000 51
184.000 35
185.000 163
186.000 6
187.000 137
189.000 18
190.000 0
191.000 7
192.000 6
193.000 0
194.000 0
195.000 36
196.000 11
197.000 9
198.000 21
199.000 11
200.000 4
201.000 50
202.000 1
210.000 15
211.000 124
212.000 14
213.000 62
214.000 84
215.000 37
217.000 3
219.000 19
222.000 0
223.000 4
224.000 0
226.000 1
227.000 93
228.000 2
229.000 113
238.000 1
239.000 187
240.000 28
241.000 15
242.000 2
243.000 55
255.000 94
256.000 12
257.000 21
266.000 3
267.000 25
268.000 21
270.000 0
283.000 1
284.000 14
285.000 999

Name: Naringin
Synon: (2S)-7-[(2S,3R,4S,5S,6R)-4,5-dihydroxy-6-(hydroxymethyl)-3-[(2S,3R,4R,5R,6S)-3,4,5-trihydroxy-6-methyloxan-2-yl]oxyoxan-2-yl]oxy-5-hydroxy-2-(4-hydroxyphenyl)chroman-4-one
DB#: MSBNK-IPB_Halle-PB000803
InChIKey: DFPMSGMNTNDNHN-ZPHOTFPESA-N
InChI: InChI=1S/C27H32O14/c1-10-20(32)22(34)24(36)26(37-10)41-25-23(35)21(33)18(9-28)40-27(25)38-13-6-14(30)19-15(31)8-16(39-17(19)7-13)11-2-4-12(29)5-3-11/h2-7,10,16,18,20-30,32-36H,8-9H2,1H3/t10-,16-,18+,20-,21+,22+,23-,24+,25+,26-,27+/m0/s1
SMILES: C[C@H]1[C@@H]([C@H]([C@H]([C@@H](O1)O[C@@H]2[C@H]([C@@H]([C@H](O[C@H]2OC3=CC(=C4C(=O)C[C@H](OC4=C3)C5=CC=C(C=C5)O)O)CO)O)O)O)O)O
Precursor_type: [M+H-C12H20O9]+
Spectrum_type: MS2
Instrument_type: LC-ESI-QTOF
Instrument: API QSTAR Pulsar i
Ion_mode: POSITIVE
Collision_energy: 25 eV
Formula: C27H32O14
MW: 580
ExactMass: 580.17921
Comments: Parent=-1
Splash: splash10-0udi-0910000000-a76416cd7b46715a5949
Num Peaks: 10
107.051 7
119.050 14
121.065 17
123.044 10
147.044 223
153.018 999
154.022 11
171.034 36
179.039 14
273.076 226

Name: Sinapoylcholine
Synon: 2-[(E)-3-(4-hydroxy-3,5-dimethoxyphenyl)prop-2-enoyl]oxyethyl-trimethylazanium
DB#: MSBNK-IPB_Halle-PB000386
InChIKey: HUJXHFRXWWGYQH-UHFFFAOYSA-O
InChI: InChI=1S/C16H23NO5/c1-17(2,3)8-9-22-15(18)7-6-12-10-13(20-4)16(19)14(11-12)21-5/h6-7,10-11H,8-9H2,1-5H3/p+1
SMILES: C[N+](C)(C)CCOC(=O)C=CC1=CC(=C(C(=C1)OC)O)OC
Precursor_type: [M]+
Spectrum_type: MS2
Instrument_type: LC-ESI-QTOF
Instrument: API QSTAR Pulsar i
Ion_mode: POSITIVE
Collision_energy: 40 eV
Formula: [C16H24NO5]+
MW: 310
ExactMass: 310.16545
Comments: Parent=-1
Splash: splash10-0kdi-0980000000-e85059fdfaf38b65fbf3
Num Peaks: 5
119.047 70
147.039 287
175.037 999
207.065 564
251.092 679

Name: Reserpine
Synon: methyl (1R,15S,17R,18R,19S,20S)-6,18-dimethoxy-17-[(3,4,5-trimethoxyphenyl)carbonyloxy]- 3,13-diazapentacyclo[11.8.0.02,10.04,9.015,20]henicosa-2(10),4(9),5,7-tetraene-19-carboxylate
DB#: MSBNK-IPB_Halle-PB005763
InChIKey: QEVHRUUCFGRFIF-MDEJGZGSSA-N
InChI: InChI=1S/C33H40N2O9/c1-38-19-7-8-20-21-9-10-35-16-18-13-27(44-32(36)17-11-25(39-2)30(41-4)26(12-17)40-3)31(42-5)28(33(37)43-6)22(18)15-24(35)29(21)34-23(20)14-19/h7-8,11-12,14,18,22,24,27-28,31,34H,9-10,13,15-16H2,1-6H3/t18-,22+,24-,27-,28+,31+/m1/s1
SMILES: CO[C@H]1[C@@H](C[C@@H]2CN3CCC4=C([C@H]3C[C@@H]2[C@@H]1C(=O)OC)NC5=C4C=CC(=C5)OC)OC(=O)C6=CC(=C(C(=C6)OC)OC)OC
Precursor_type: [M+H]+
Spectrum_type: MS2
Instrument_type: LC-ESI-QTOF
Instrument: micrOTOF-Q
Ion_mode: POSITIVE
Collision_energy: 25 eV
Formula: C33H40N2O9
MW: 608
ExactMass: 608.27338
Comments: Parent=-1
Splash: splash10-052b-0319207000-0b0edf20dde921411913
Num Peaks: 125
148.075 2
152.045 1
159.066 0
160.074 1
162.091 0
167.069 0
174.089 104
175.092 6
176.103 2
178.084 0
186.090 0
188.106 4
189.102 0
190.086 0
192.100 12
193.095 0
195.063 338
196.066 24
200.104 4
201.101 0
204.100 5
210.099 0
212.103 1
214.105 2
215.115 16
216.115 1
222.109 4
224.125 41
225.127 2
226.120 0
227.115 1
228.123 1
229.130 3
236.125 95
237.128 9
238.126 2
242.134 2
250.118 0
252.133 0
253.129 1
254.135 4
255.115 0
262.120 0
264.133 0
265.131 0
267.143 0
274.126 0
275.128 0
276.135 1
281.161 1
286.133 0
287.136 1
288.135 3
289.141 0
290.118 1
294.142 0
304.128 2
305.158 0
306.155 0
308.137 0
309.130 0
316.130 1
320.154 0
322.139 8
323.145 0
324.147 0
333.155 8
334.144 4
336.156 27
337.161 5
338.175 0
339.163 0
340.147 0
341.181 0
347.170 0
348.154 17
349.156 2
354.164 7
355.166 0
365.181 124
366.180 24
367.179 0
368.174 36
369.178 7
379.199 1
380.181 14
381.182 2
382.179 0
386.192 2
395.185 0
396.878 0
397.207 999
397.751 0
397.859 0
398.210 174
399.211 6
402.149 2
404.166 2
413.202 10
414.204 2
416.165 0
422.176 1
434.175 16
435.176 2
436.191 56
437.196 7
448.192 222
449.194 39
450.201 1
559.237 1
560.227 0
577.247 35
578.248 8
580.248 1
591.262 2
592.252 2
593.242 0
608.466 0
608.760 0
609.274 931
609.736 0
609.854 0
609.968 0
610.277 242
611.281 10

Name: Biochanin A
Synon: 5,7-dihydroxy-3-(4-methoxyphenyl)chromen-4-one
DB#: MSBNK-IPB_Halle-PB000262
InChIKey: WUADCCWRTIWANL-UHFFFAOYSA-N
InChI: InChI=1S/C16H12O5/c1-20-11-4-2-9(3-5-11)12-8-21-14-7-10(17)6-13(18)15(14)16(12)19/h2-8,17-18H,1H3
SMILES: COC1=CC=C(C=C1)C2=COC3=CC(=CC(=C3C2=O)O)O
Precursor_type: [M+H]+
Spectrum_type: MS2
Instrument_type: LC-ESI-QTOF
Instrument: API QSTAR Pulsar i
Ion_mode: POSITIVE
Collision_energy: 40 eV
Formula: C16H12O5
MW: 284
ExactMass: 284.06847
Comments: Parent=-1
Splash: splash10-0udl-0790000000-dfcd1ad0cd74fa25c9c6
Num Peaks: 80
67.016 8
68.995 13
79.053 11
90.044 20
96.018 13
103.053 23
105.066 36
107.047 27
111.010 35
115.052 15
118.040 293
119.047 29
121.036 96
123.040 274
124.012 319
129.064 11
130.042 25
131.049 26
132.052 19
133.062 132
135.043 16
136.016 9
139.041 26
141.070 32
144.052 20
145.058 51
146.070 8
149.022 286
151.041 8
152.009 791
153.018 353
155.058 17
157.062 16
158.038 288
159.060 32
161.078 34
163.041 22
167.039 9
168.059 50
169.066 41
170.026 85
171.052 25
172.053 18
173.066 27
179.037 78
181.068 10
183.066 45
184.054 17
185.062 59
186.067 69
187.074 21
196.054 32
197.061 174
198.068 22
199.062 14
200.049 21
201.067 42
211.066 37
212.056 20
213.057 766
214.065 144
215.068 10
216.045 40
224.049 37
225.056 99
226.064 26
227.050 19
229.088 470
230.091 13
241.052 357
242.060 999
243.064 36
252.047 81
253.054 495
254.060 19
269.050 544
270.058 474
271.061 14
285.076 436
286.080 15

Name: Serotonin
Synon: 3-(2-aminoethyl)-1H-indol-5-ol
DB#: MSBNK-IPB_Halle-PB001417
InChIKey: QZAYGJVTTNCVMB-UHFFFAOYSA-N
InChI: InChI=1S/C10H12N2O/c11-4-3-7-6-12-10-2-1-8(13)5-9(7)10/h1-2,5-6,12-13H,3-4,11H2
SMILES: C1=CC2=C(C=C1O)C(=CN2)CCN
Precursor_type: [M+H]+
Spectrum_type: MS2
Instrument_type: LC-ESI-QTOF
Instrument: API QSTAR Pulsar i
Ion_mode: POSITIVE
Collision_energy: 15 eV
Formula: C10H12N2O
MW: 176
ExactMass: 176.09496
Comments: Parent=-1
Splash: splash10-03di-0900000000-08840bc938c367dacbb2
Num Peaks: 4
115.979 13
132.083 26
159.951 18
160.073 999

Name: (20S)-14-oxapentacyclo[20.2.2.210,13.115,19.02,7]nonacosa-1(24),2(7),3,5,10(29),11,13(28),15,17,19(27),22,25-dodecaene-5,16,20,24-tetrol
Synon: Maruchantin E
DB#: MSBNK-IPB_Halle-PB011901
InChIKey: BTGPMKAMOFOWKF-SANMLTNESA-N
InChI: InChI=1S/C28H24O5/c29-21-7-11-23-19(15-21)5-1-17-2-8-22(9-3-17)33-28-16-20(6-12-25(28)30)26(31)13-18-4-10-24(23)27(32)14-18/h2-4,6-12,14-16,26,29-32H,1,5,13H2/t26-/m0/s1
SMILES: C1CC2=C(C=CC(=C2)O)C3=C(C=C(C[C@@H](C4=CC(=C(C=C4)O)OC5=CC=C1C=C5)O)C=C3)O
Precursor_type: [M+H]+
Spectrum_type: MS2
PrecursorMZ: 441.1697
Instrument_type: LC-ESI-QTOF
Instrument: Bruker MicrOTOF-Q
Ion_mode: POSITIVE
Collision_energy: 30.58772
Formula: C28H24O5
MW: 440
ExactMass: 440.162
Comments: Parent=441.1697
Splash: splash10-01t9-0291000000-92338fb9fa58f976baa9
Num Peaks: 200
107.04 9
115.05 10
117.06 12
119.05 25
120.06 14
121.06 108
122.06 12
123.04 38
123.13 6
125.01 6
128.06 12
132.05 6
133.02 15
133.07 18
133.12 10
134.07 8
135.04 75
136.05 32
137.06 44
139.04 7
141.07 18
143.08 8
145.06 10
147.04 6
148.04 10
151.04 15
151.1 7
152.06 35
153.07 28
155.08 12
157.09 9
158.07 7
161.06 14
163.07 5
165.07 62
166.07 26
167.09 44
168.09 30
168.15 10
169.07 36
171.03 7
171.08 39
172.09 9
173.06 15
177.07 42
178.08 28
179.09 25
180.1 9
181.06 214
182.07 59
183.08 207
184.09 24
185.1 65
186.09 6
187.07 31
189.08 6
190.08 8
192.08 6
193.07 55
194.08 28
195.08 260
196.09 227
197.06 319
198.07 162
199.08 472
200.08 87
201.09 47
203.09 15
205.09 15
206.08 7
207.08 55
207.16 7
208.09 28
209.08 187
210.07 134
211.08 591
212.08 336
212.97 8
213.09 999
214.09 199
215.07 665
216.07 115
217.1 7
219.07 7
219.17 10
220.11 11
221.09 115
222.09 27
223.08 54
223.16 8
224.08 240
225.09 714
226.07 190
227.07 673
228.08 579
229.08 808
230.09 169
231.09 16
235.08 6
235.13 7
236.08 10
237.09 96
237.17 7
238 7
238.09 30
239.11 839
240.09 221
241.09 890
242.09 127
242.17 21
243.08 24
243.97 6
244.07 71
245.08 17
247.07 12
247.15 10
249.09 18
250.08 9
251.11 12
252.09 10
253.08 30
254.09 16
255.1 591
256.11 68
257.11 17
259.11 26
260.11 7
261.09 6
263.09 9
264.12 7
268.09 8
269.12 6
270.1 10
271.1 6
273.08 15
274.08 6
275.1 16
276.11 6
277.11 6
281.15 7
283.11 31
284.11 8
286 7
286.13 8
287.1 26
287.19 9
288.12 12
289.13 22
291.1 11
297.09 11
299.11 40
301.12 74
302.12 14
303.14 57
304.11 7
304.2 7
306.13 19
307.14 6
311.14 7
312.11 17
313.11 19
314.13 26
315.1 48
316.15 152
317.12 110
318.13 24
319.13 264
320.14 60
321.13 14
322.13 8
323.12 15
329.13 21
330.12 39
331.11 33
331.97 8
332.14 67
333.11 197
334.11 38
335.13 90
336.13 54
337.13 8
338.13 8
344.14 9
345.05 6
346.11 10
347.13 87
348.13 85
349.12 18
350.07 6
366.16 8
373.19 6
381.15 8
395.16 13
410.04 7
423.16 86
424.17 36
439.16 82
440.16 28
441.17 196
443.16 10

Name: Xanthohumol
Synon: (E)-1-[2,4-dihydroxy-6-methoxy-3-(3-methylbut-2-enyl)phenyl]-3-(4-hydroxyphenyl)prop-2-en-1-one
DB#: MSBNK-IPB_Halle-PB004941
InChIKey: ORXQGKIUCDPEAJ-YRNVUSSQSA-N
InChI: InChI=1S/C21H22O5/c1-13(2)4-10-16-18(24)12-19(26-3)20(21(16)25)17(23)11-7-14-5-8-15(22)9-6-14/h4-9,11-12,22,24-25H,10H2,1-3H3/b11-7+
SMILES: CC(=CCC1=C(C(=C(C=C1O)OC)C(=O)/C=C/C2=CC=C(C=C2)O)O)C
Precursor_type: [M-H]-
Spectrum_type: MS2
Instrument_type: LC-ESI-QQ
Instrument: TSQ QUANTUM AM
Ion_mode: NEGATIVE
Collision_energy: 15 eV
Formula: C21H22O5
MW: 354
ExactMass: 354.14672
Comments: Parent=-1
Splash: splash10-0udi-0029000000-5292b3ba1142d29c7386
Num Peaks: 19
119.000 51
131.000 0
145.000 0
165.000 1
173.000 0
175.000 1
189.000 2
190.000 1
218.000 6
233.000 221
247.000 3
283.000 1
295.000 5
309.000 0
310.000 0
311.000 0
321.000 0
338.000 0
353.000 999

Name: Glutamine
Synon: 2,5-diamino-5-oxopentanoic acid
DB#: MSBNK-IPB_Halle-PB000467
InChIKey: ZDXPYRJPNDTMRX-UHFFFAOYSA-N
InChI: InChI=1S/C5H10N2O3/c6-3(5(9)10)1-2-4(7)8/h3H,1-2,6H2,(H2,7,8)(H,9,10)
SMILES: C(CC(=O)N)C(C(=O)O)N
Precursor_type: [M+H]+
Spectrum_type: MS2
Instrument_type: LC-ESI-QTOF
Instrument: API QSTAR Pulsar i
Ion_mode: POSITIVE
Collision_energy: 20 eV
Formula: C5H10N2O3
MW: 146
ExactMass: 146.06914
Comments: Parent=-1
Splash: splash10-001i-9500000000-519ee25668806b3cf33d
Num Peaks: 7
56.051 10
84.045 999
85.029 9
101.074 53
102.056 41
130.051 521
147.078 21

Name: S,R-Noscapine
Synon: (3S)-6,7-dimethoxy-3-[(5R)-4-methoxy-6-methyl-7,8-dihydro-5H-[1,3]dioxolo[4,5-g]isoquinolin-5-yl]-3H-2-benzofuran-1-one
DB#: MSBNK-IPB_Halle-PB005906
InChIKey: AKNNEGZIBPJZJG-MSOLQXFVSA-N
InChI: InChI=1S/C22H23NO7/c1-23-8-7-11-9-14-20(29-10-28-14)21(27-4)15(11)17(23)18-12-5-6-13(25-2)19(26-3)16(12)22(24)30-18/h5-6,9,17-18H,7-8,10H2,1-4H3/t17-,18+/m1/s1
SMILES: CN1CCC2=CC3=C(C(=C2[C@@H]1[C@@H]4C5=C(C(=C(C=C5)OC)OC)C(=O)O4)OC)OCO3
Precursor_type: [M+H]+
Spectrum_type: MS2
Instrument_type: LC-ESI-QTOF
Instrument: micrOTOF-Q
Ion_mode: POSITIVE
Collision_energy: 15 eV
Formula: C22H23NO7
MW: 413
ExactMass: 413.14745
Comments: Parent=-1
Splash: splash10-03k9-0072900000-ea5b0616008daba7bd91
Num Peaks: 51
179.068 12
205.070 6
206.078 8
218.079 2
219.087 3
220.095 836
221.098 77
222.100 1
236.087 0
248.088 7
295.091 0
307.088 0
308.097 0
312.097 0
320.069 0
322.081 0
323.087 5
324.095 8
325.102 2
327.120 1
334.080 3
335.087 4
337.100 0
338.096 0
339.118 1
341.097 0
350.075 8
351.083 1
352.091 6
353.098 166
354.101 24
355.113 4
365.097 59
366.101 9
367.111 1
368.142 0
371.108 5
372.110 0
378.130 3
379.128 0
381.116 5
382.119 0
383.109 8
384.116 0
396.140 18
397.143 2
413.836 0
414.151 999
414.557 0
415.154 179
416.157 8

Name: Kaempferol
Synon: 3,5,7-trihydroxy-2-(4-hydroxyphenyl)chromen-4-one
DB#: MSBNK-IPB_Halle-PB004143
InChIKey: IYRMWMYZSQPJKC-UHFFFAOYSA-N
InChI: InChI=1S/C15H10O6/c16-8-3-1-7(2-4-8)15-14(20)13(19)12-10(18)5-9(17)6-11(12)21-15/h1-6,16-18,20H
SMILES: C1=CC(=CC=C1C2=C(C(=O)C3=C(C=C(C=C3O2)O)O)O)O
Precursor_type: [M-H]-
Spectrum_type: MS2
Instrument_type: LC-ESI-QQ
Instrument: TSQ QUANTUM AM
Ion_mode: NEGATIVE
Collision_energy: 40 eV
Formula: C15H10O6
MW: 286
ExactMass: 286.04774
Comments: Parent=-1
Splash: splash10-05ox-0920000000-5374bcae2519affb1a80
Num Peaks: 141
41.000 1
63.000 19
65.000 117
67.000 25
69.000 7
75.000 1
77.000 7
79.000 31
80.000 18
81.000 0
83.000 25
89.000 3
91.000 46
92.000 69
93.000 605
94.000 7
95.000 54
96.000 0
97.000 2
102.000 0
103.000 5
104.000 6
105.000 51
106.000 0
107.000 95
108.000 272
109.000 127
113.000 2
115.000 52
116.000 16
117.000 999
119.000 134
120.000 48
121.000 76
122.000 6
123.000 77
124.000 9
126.000 9
127.000 5
128.000 10
129.000 89
130.000 140
131.000 193
132.000 98
133.000 133
134.000 5
135.000 115
136.000 33
137.000 76
139.000 28
140.000 1
141.000 106
142.000 25
143.000 598
144.000 20
145.000 545
146.000 17
147.000 33
149.000 1
151.000 32
153.000 33
154.000 184
155.000 249
156.000 347
157.000 306
158.000 325
159.000 472
160.000 22
161.000 322
162.000 3
163.000 97
164.000 18
165.000 14
167.000 287
168.000 53
169.000 89
170.000 21
171.000 230
172.000 43
173.000 131
174.000 66
175.000 12
179.000 12
180.000 0
182.000 313
183.000 487
184.000 145
185.000 272
186.000 42
187.000 295
189.000 11
190.000 14
191.000 58
192.000 3
194.000 0
195.000 88
196.000 32
197.000 55
198.000 47
199.000 37
200.000 21
201.000 96
203.000 6
204.000 0
205.000 12
210.000 230
211.000 472
212.000 10
213.000 157
214.000 66
215.000 12
216.000 7
217.000 4
219.000 1
222.000 5
223.000 32
224.000 2
225.000 6
226.000 21
227.000 622
228.000 5
229.000 44
237.000 3
238.000 66
239.000 326
240.000 50
241.000 4
242.000 8
243.000 24
253.000 1
255.000 286
256.000 15
257.000 5
265.000 2
266.000 15
267.000 144
268.000 40
269.000 12
283.000 0
284.000 7
285.000 69

Name: Proline
Synon: pyrrolidine-2-carboxylic acid
DB#: MSBNK-IPB_Halle-PB000451
InChIKey: ONIBWKKTOPOVIA-UHFFFAOYSA-N
InChI: InChI=1S/C5H9NO2/c7-5(8)4-2-1-3-6-4/h4,6H,1-3H2,(H,7,8)
SMILES: C1CC(NC1)C(=O)O
Precursor_type: [M+H]+
Spectrum_type: MS2
Instrument_type: LC-ESI-QTOF
Instrument: API QSTAR Pulsar i
Ion_mode: POSITIVE
Collision_energy: 55 eV
Formula: C5H9NO2
MW: 115
ExactMass: 115.06333
Comments: Parent=-1
Splash: splash10-00di-9000000000-91b526c5c2fc8d4096f6
Num Peaks: 8
39.023 36
41.040 112
42.036 124
43.054 165
44.051 28
53.042 42
68.053 98
70.067 999

Name: 1H-indole-3-carboxylic acid
DB#: MSBNK-IPB_Halle-PB000616
InChIKey: KMAKOBLIOCQGJP-UHFFFAOYSA-N
InChI: InChI=1S/C9H7NO2/c11-9(12)7-5-10-8-4-2-1-3-6(7)8/h1-5,10H,(H,11,12)
SMILES: C1=CC=C2C(=C1)C(=CN2)C(=O)O
Precursor_type: [M+H]+
Spectrum_type: MS2
Instrument_type: LC-ESI-QTOF
Instrument: API QSTAR Pulsar i
Ion_mode: POSITIVE
Collision_energy: 25 eV
Formula: C9H7NO2
MW: 161
ExactMass: 161.04768
Comments: Parent=-1
Splash: splash10-014l-1900000000-1995f9dbe32f987d490a
Num Peaks: 7
89.043 48
91.058 400
116.051 710
117.060 98
118.068 999
144.046 592
162.060 86

Name: Sinapine
Synon: 2-[(E)-3-(4-hydroxy-3,5-dimethoxyphenyl)prop-2-enoyl]oxyethyl-trimethylazanium
DB#: MSBNK-IPB_Halle-PB006008
InChIKey: HUJXHFRXWWGYQH-UHFFFAOYSA-O
InChI: InChI=1S/C16H23NO5/c1-17(2,3)8-9-22-15(18)7-6-12-10-13(20-4)16(19)14(11-12)21-5/h6-7,10-11H,8-9H2,1-5H3/p+1
SMILES: C[N+](C)(C)CCOC(=O)C=CC1=CC(=C(C(=C1)OC)O)OC
Precursor_type: [M]+
Spectrum_type: MS2
PrecursorMZ: 310.16545
Instrument_type: LC-ESI-QTOF
Instrument: micrOTOF-Q
Ion_mode: POSITIVE
Collision_energy: 30 eV
Formula: [C16H24NO5]+
MW: 310
ExactMass: 310.16545
Comments: Parent=310.16545
Splash: splash10-0kdj-0950000000-61508103ba9b618dbf8f
Num Peaks: 91
115.052 15
116.054 2
117.073 2
118.041 3
119.047 128
120.049 7
121.028 3
121.064 1
123.039 0
127.051 1
128.060 5
129.031 32
129.072 0
130.036 1
131.047 13
132.023 10
132.052 9
133.022 0
133.035 1
133.060 2
134.035 18
135.042 20
136.048 19
137.053 3
143.046 5
144.053 4
145.027 11
145.063 8
146.034 27
147.042 634
148.045 53
149.023 32
149.060 1
150.025 2
151.037 33
152.043 2
153.087 0
157.027 0
157.065 0
159.045 0
160.014 6
160.046 2
161.019 0
161.056 9
162.029 37
163.036 63
164.044 116
165.048 6
167.067 2
172.053 0
173.023 0
173.057 1
174.029 16
175.036 999
176.040 93
177.024 4
177.050 8
178.023 0
178.056 1
179.067 81
180.055 7
181.040 0
181.085 4
189.048 4
190.058 38
191.033 32
191.071 0
192.038 30
192.097 0
193.044 15
194.047 0
203.030 0
205.042 0
206.054 17
207.061 542
208.054 58
209.038 5
218.052 6
218.142 0
219.060 5
221.041 16
222.052 1
229.946 0
235.056 122
235.141 0
236.063 92
237.068 6
251.087 780
251.181 0
251.222 0
252.090 93

Name: Syringaldehyde
Synon: 4-hydroxy-3,5-dimethoxybenzaldehyde
DB#: MSBNK-IPB_Halle-PB000619
InChIKey: KCDXJAYRVLXPFO-UHFFFAOYSA-N
InChI: InChI=1S/C9H10O4/c1-12-7-3-6(5-10)4-8(13-2)9(7)11/h3-5,11H,1-2H3
SMILES: COC1=CC(=CC(=C1O)OC)C=O
Precursor_type: [M+H]+
Spectrum_type: MS2
Instrument_type: LC-ESI-QTOF
Instrument: API QSTAR Pulsar i
Ion_mode: POSITIVE
Collision_energy: 15 eV
Formula: C9H10O4
MW: 182
ExactMass: 182.05791
Comments: Parent=-1
Splash: splash10-05gi-0900000000-ec8dfff58a288a3a2202
Num Peaks: 7
77.042 25
95.053 139
123.047 999
140.050 159
155.073 950
182.061 12
183.072 779

Name: Isoleucine
Synon: 2-amino-3-methylpentanoic acid
DB#: MSBNK-IPB_Halle-PB000395
InChIKey: AGPKZVBTJJNPAG-UHFFFAOYSA-N
InChI: InChI=1S/C6H13NO2/c1-3-4(2)5(7)6(8)9/h4-5H,3,7H2,1-2H3,(H,8,9)
SMILES: CCC(C)C(C(=O)O)N
Precursor_type: [M+H]+
Spectrum_type: MS2
Instrument_type: LC-ESI-QTOF
Instrument: API QSTAR Pulsar i
Ion_mode: POSITIVE
Collision_energy: 10 eV
Formula: C6H13NO2
MW: 131
ExactMass: 131.09463
Comments: Parent=-1
Splash: splash10-001r-5900000000-e881c9d3a0915892d38b
Num Peaks: 2
86.099 618
132.104 999

Name: o-Anisic acid
Synon: 2-methoxybenzoic acid
DB#: MSBNK-IPB_Halle-PB000623
InChIKey: ILUJQPXNXACGAN-UHFFFAOYSA-N
InChI: InChI=1S/C8H8O3/c1-11-7-5-3-2-4-6(7)8(9)10/h2-5H,1H3,(H,9,10)
SMILES: COC1=CC=CC=C1C(=O)O
Precursor_type: [M+H]+
Spectrum_type: MS2
Instrument_type: LC-ESI-QTOF
Instrument: API QSTAR Pulsar i
Ion_mode: POSITIVE
Collision_energy: 15 eV
Formula: C8H8O3
MW: 152
ExactMass: 152.04734
Comments: Parent=-1
Splash: splash10-000i-0900000000-2ec02738512fec538d47
Num Peaks: 2
135.045 999
153.058 44

Name: Genistein 8-C-glucoside
DB#: MSBNK-IPB_Halle-PN000014
InChIKey: HIWJJOYYZFELEZ-FFYOZGDPSA-N
InChI: InChI=1S/C21H20O10/c22-6-13-17(27)18(28)19(29)21(31-13)15-12(25)5-11(24)14-16(26)10(7-30-20(14)15)8-1-3-9(23)4-2-8/h1-5,7,13,17-19,21-25,27-29H,6H2/t13-,17-,18+,19-,21+/m1/s1
SMILES: C1=CC(=CC=C1C2=COC3=C(C2=O)C(=CC(=C3[C@H]4[C@@H]([C@H]([C@@H]([C@H](O4)CO)O)O)O)O)O)O
Precursor_type: [M-H]-
Spectrum_type: MS2
PrecursorMZ: 431.103
Instrument_type: ESI-TOF
Instrument: micrOTOF-Q
Ion_mode: NEGATIVE
Collision_energy: 25 eV
Formula: C21H20O10
MW: 432
ExactMass: 432.10564683999996
Comments: Parent=431.103
Splash: splash10-03di-0049000000-e0cbd8f4795e381ec9ce
Num Peaks: 27
117.038 12
149.021 10
159.044 5
161.023 11
163.040 7
173.023 5
191.032 13
203.036 5
268.042 7
269.049 19
281.049 18
282.056 11
283.061 539
284.064 58
285.067 8
293.046 19
295.059 5
309.038 7
311.056 999
312.061 133
313.064 21
314.049 5
323.056 36
324.058 8
341.068 52
342.069 9
431.099 13

Name: Berberine
Synon: 9,10-dimethoxy-5,6-dihydro[1,3]dioxolo[4,5-g]isoquino[3,2-a]isoquinolin-7-ium
DB#: MSBNK-IPB_Halle-PB005922
InChIKey: YBHILYKTIRIUTE-UHFFFAOYSA-N
InChI: InChI=1S/C20H18NO4/c1-22-17-4-3-12-7-16-14-9-19-18(24-11-25-19)8-13(14)5-6-21(16)10-15(12)20(17)23-2/h3-4,7-10H,5-6,11H2,1-2H3/q+1
SMILES: COC1=C(C2=C[N+]3=C(C=C2C=C1)C4=CC5=C(C=C4CC3)OCO5)OC
Precursor_type: [M]+
Spectrum_type: MS2
PrecursorMZ: 336.12358
Instrument_type: LC-ESI-QTOF
Instrument: micrOTOF-Q
Ion_mode: POSITIVE
Collision_energy: 30 eV
Formula: [C20H18NO4]+
MW: 336
ExactMass: 336.12358
Comments: Parent=336.12358
Splash: splash10-00dl-0069000000-437bdc5509b367efef25
Num Peaks: 44
219.067 0
220.074 1
233.078 0
234.086 3
235.075 1
246.088 0
248.068 3
249.075 3
250.081 2
251.096 0
260.069 0
261.072 0
262.081 5
263.087 26
264.096 11
265.101 0
274.082 3
275.090 54
276.094 15
277.071 13
278.077 457
279.080 64
280.084 0
288.059 0
289.070 1
290.077 8
291.085 45
292.093 714
293.096 110
294.092 1
303.083 0
304.092 275
305.095 45
306.072 378
307.077 82
308.082 4
318.071 112
319.075 15
319.833 0
320.087 999
321.092 252
322.098 19
336.115 24
337.121 2

Name: Isovitexin
Synon: Homovitexin
Synon: Saponaretin
Synon: Apigenin-6-C-glucoside
DB#: MSBNK-IPB_Halle-PN000122
InChIKey: MYXNWGACZJSMBT-VJXVFPJBSA-N
InChI: InChI=1S/C21H20O10/c22-7-14-17(26)19(28)20(29)21(31-14)16-11(25)6-13-15(18(16)27)10(24)5-12(30-13)8-1-3-9(23)4-2-8/h1-6,14,17,19-23,25-29H,7H2/t14-,17-,19+,20-,21+/m1/s1
SMILES: C1=CC(=CC=C1C2=CC(=O)C3=C(C(=C(C=C3O2)O)[C@H]4[C@@H]([C@H]([C@@H]([C@H](O4)CO)O)O)O)O)O
Precursor_type: [M-H]-
Spectrum_type: MS2
PrecursorMZ: 431.091
Instrument_type: ESI-TOF
Instrument: micrOTOF-Q
Ion_mode: NEGATIVE
Collision_energy: 25 eV
Formula: C21H20O10
MW: 432
ExactMass: 432.10564683999996
Comments: Parent=431.091
Splash: splash10-03di-0039000000-f483e8db27b9b3bc7b10
Num Peaks: 30
161.026 8
239.069 8
268.036 11
269.042 61
270.043 9
281.043 57
282.049 100
283.058 451
284.064 73
285.061 11
293.041 10
295.055 28
309.039 17
311.050 999
312.054 134
313.057 32
314.040 11
323.052 125
324.058 30
325.068 14
341.061 385
342.062 47
343.067 11
349.069 8
353.057 40
355.073 8
365.058 9
383.072 13
413.085 10
431.089 12

Name: Chrysoeriol
Synon: 5,7-Dihydroxy-2-(4-hydroxy-3-methoxyphenyl)-4-benzopyrone
Synon: 3'-Methoxyapigenin
DB#: MSBNK-IPB_Halle-PN000007
InChIKey: SCZVLDHREVKTSH-UHFFFAOYSA-N
InChI: InChI=1S/C16H12O6/c1-21-14-4-8(2-3-10(14)18)13-7-12(20)16-11(19)5-9(17)6-15(16)22-13/h2-7,17-19H,1H3
SMILES: COC1=CC(=CC=C1(O))C2=CC(=O)C3=C(O)C=C(O)C=C3(O2)
Precursor_type: [M+H]+
Spectrum_type: MS2
PrecursorMZ: 301.069
Instrument_type: ESI-TOF
Instrument: micrOTOF-Q
Ion_mode: POSITIVE
Collision_energy: 15 eV
Formula: C16H12O6
MW: 300
ExactMass: 300.06338810399996
Comments: Parent=301.069
Splash: splash10-0a4i-0090000000-d09c9acd5c6c18bab129
Num Peaks: 15
152.0110 5
153.0171 112
154.0233 5
184.0455 7
188.0434 5
201.0510 9
212.0478 5
229.0475 152
230.0565 17
257.0426 63
258.0502 999
259.0555 97
260.0560 17
286.0448 95
287.0549 13

Name: Daidzein
Synon: 7-hydroxy-3-(4-hydroxyphenyl)chromen-4-one
DB#: MSBNK-IPB_Halle-PB002426
InChIKey: ZQSIJRDFPHDXIC-UHFFFAOYSA-N
InChI: InChI=1S/C15H10O4/c16-10-3-1-9(2-4-10)13-8-19-14-7-11(17)5-6-12(14)15(13)18/h1-8,16-17H
SMILES: C1=CC(=CC=C1C2=COC3=C(C2=O)C=CC(=C3)O)O
Precursor_type: [M-H]-
Spectrum_type: MS2
Instrument_type: LC-ESI-QTOF
Instrument: API QSTAR Pulsar i
Ion_mode: NEGATIVE
Collision_energy: 25 eV
Formula: C15H10O4
MW: 254
ExactMass: 254.05791
Comments: Parent=-1
Splash: splash10-0udi-0090000000-edbda259194286084efe
Num Peaks: 8
135.031 9
197.068 11
208.062 18
209.068 26
223.048 15
224.054 40
225.062 23
253.046 999

Name: N-Acetylindole
Synon: 1-indol-1-ylethanone
DB#: MSBNK-IPB_Halle-PB000491
InChIKey: UUCUQJHYUPXDHN-UHFFFAOYSA-N
InChI: InChI=1S/C10H9NO/c1-8(12)11-7-6-9-4-2-3-5-10(9)11/h2-7H,1H3
SMILES: CC(=O)N1C=CC2=CC=CC=C21
Precursor_type: [M+H]+
Spectrum_type: MS2
Instrument_type: LC-ESI-QTOF
Instrument: API QSTAR Pulsar i
Ion_mode: POSITIVE
Collision_energy: 15 eV
Formula: C10H9NO
MW: 159
ExactMass: 159.06841
Comments: Parent=-1
Splash: splash10-03xr-0900000000-c2d97716a4c6a6a4cb6e
Num Peaks: 3
43.019 51
118.067 774
160.076 999

Name: Histidine
Synon: 2-amino-3-(3H-imidazol-4-yl)propanoic acid
DB#: MSBNK-IPB_Halle-PB000423
InChIKey: HNDVDQJCIGZPNO-UHFFFAOYSA-N
InChI: InChI=1S/C6H9N3O2/c7-5(6(10)11)1-4-2-8-3-9-4/h2-3,5H,1,7H2,(H,8,9)(H,10,11)
SMILES: C1=C(NC=N1)CC(C(=O)O)N
Precursor_type: [M+H]+
Spectrum_type: MS2
Instrument_type: LC-ESI-QTOF
Instrument: API QSTAR Pulsar i
Ion_mode: POSITIVE
Collision_energy: 25 eV
Formula: C6H9N3O2
MW: 155
ExactMass: 155.06948
Comments: Parent=-1
Splash: splash10-03di-3900000000-fabf0346c834e207c5f2
Num Peaks: 10
56.050 9
68.049 13
81.044 9
82.052 53
83.059 157
93.044 114
95.060 92
110.070 999
111.054 8
156.074 19

Name: Nicotianamine
Synon: (2S)-1-[(3S)-3-{[(3S)-3-amino-3-carboxypropyl]amino}-3-carboxypropyl]azetidine-2-carboxylic acid
DB#: MSBNK-IPB_Halle-PB003703
InChIKey: KRGPXXHMOXVMMM-CIUDSAMLSA-N
InChI: InChI=1S/C12H21N3O6/c13-7(10(16)17)1-4-14-8(11(18)19)2-5-15-6-3-9(15)12(20)21/h7-9,14H,1-6,13H2,(H,16,17)(H,18,19)(H,20,21)/t7-,8-,9-/m0/s1
SMILES: C1CN([C@@H]1C(=O)O)CC[C@@H](C(=O)O)NCC[C@@H](C(=O)O)N
Precursor_type: [M-H]-
Spectrum_type: MS2
Instrument_type: LC-ESI-QQ
Instrument: TSQ 7000
Ion_mode: NEGATIVE
Collision_energy: 35 eV
Formula: C12H21N3O6
MW: 303
ExactMass: 303.14303
Comments: Parent=-1
Splash: splash10-0ff9-4910000000-d2f3de597afdc8b46db7
Num Peaks: 41
59.000 220
68.000 21
69.000 15
70.000 105
71.000 852
72.000 220
73.000 106
84.000 97
85.000 15
86.000 9
94.000 105
95.000 45
96.000 10
97.000 21
98.000 58
99.000 489
100.000 432
112.000 262
117.000 45
118.000 53
125.000 228
129.000 232
140.000 119
143.000 57
155.000 301
156.000 34
157.000 185
165.000 34
167.000 326
181.000 37
182.000 999
183.000 70
186.000 890
187.000 59
195.000 27
200.000 401
205.000 34
212.000 179
213.000 107
240.000 10
304.000 12

Name: Ononin
Synon: 3-(4-methoxyphenyl)-7-[(2S,3R,4S,5S,6R)-3,4,5-trihydroxy-6-(hydroxymethyl)oxan-2-yl]oxychromen-4-one
DB#: MSBNK-IPB_Halle-PB000782
InChIKey: MGJLSBDCWOSMHL-MIUGBVLSSA-N
InChI: InChI=1S/C22H22O9/c1-28-12-4-2-11(3-5-12)15-10-29-16-8-13(6-7-14(16)18(15)24)30-22-21(27)20(26)19(25)17(9-23)31-22/h2-8,10,17,19-23,25-27H,9H2,1H3/t17-,19-,20+,21-,22-/m1/s1
SMILES: COC1=CC=C(C=C1)C2=COC3=C(C2=O)C=CC(=C3)O[C@H]4[C@@H]([C@H]([C@@H]([C@H](O4)CO)O)O)O
Precursor_type: [M+H]+
Spectrum_type: MS2
Instrument_type: LC-ESI-QTOF
Instrument: API QSTAR Pulsar i
Ion_mode: POSITIVE
Collision_energy: 55 eV
Formula: C22H22O9
MW: 430
ExactMass: 430.12638
Comments: Parent=-1
Splash: splash10-0gb9-0290000000-7668bb15644a7d8dc6f5
Num Peaks: 31
98.983 11
107.047 51
108.018 6
118.038 142
133.060 21
136.013 68
137.021 50
152.059 7
153.068 7
154.024 12
156.056 15
158.073 5
163.040 22
169.065 11
170.074 21
181.068 40
182.076 22
185.101 6
195.083 12
197.061 102
198.070 48
209.064 8
213.093 294
225.053 68
226.061 235
237.055 357
241.087 13
253.050 284
254.059 340
269.081 999
270.086 7

Name: Codeine
Synon: 7,8-Didehydro-4,5-epoxy-3-methoxy-17-methyl-(5,6)-morphinan-6-ol
DB#: MSBNK-IPB_Halle-PB001608
InChIKey: OROGSEYTTFOCAN-DNJOTXNNSA-N
InChI: InChI=1S/C18H21NO3/c1-19-8-7-18-11-4-5-13(20)17(18)22-16-14(21-2)6-3-10(15(16)18)9-12(11)19/h3-6,11-13,17,20H,7-9H2,1-2H3/t11-,12+,13-,17-,18-/m0/s1
SMILES: CN1CC[C@]23[C@@H]4[C@H]1CC5=C2C(=C(C=C5)OC)O[C@H]3[C@H](C=C4)O
Precursor_type: [M+H]+
Spectrum_type: MS2
Instrument_type: LC-ESI-QQ
Instrument: TSQ 7000
Ion_mode: POSITIVE
Collision_energy: 40 eV
Formula: C18H21NO3
MW: 299
ExactMass: 299.15214
Comments: Parent=-1
Splash: splash10-0lea-1930000000-48dcc53ac80bf97d1f2d
Num Peaks: 208
28.000 0
29.000 2
30.000 28
31.000 14
32.000 3
33.000 0
41.000 6
42.000 9
43.000 29
44.000 301
45.000 15
46.000 0
53.000 1
55.000 106
56.000 25
57.000 82
58.000 400
59.000 5
60.000 2
65.000 0
67.000 24
68.000 1
69.000 28
70.000 4
71.000 15
72.000 0
77.000 19
78.000 0
79.000 17
80.000 0
81.000 18
82.000 2
83.000 24
84.000 1
85.000 0
86.000 0
91.000 40
92.000 0
93.000 23
94.000 9
95.000 12
96.000 2
97.000 11
103.000 19
104.000 1
105.000 11
106.000 1
107.000 16
108.000 5
109.000 4
110.000 1
112.000 0
115.000 58
116.000 6
117.000 15
118.000 3
119.000 5
120.000 4
121.000 47
122.000 11
123.000 1
124.000 1
127.000 36
128.000 70
129.000 57
130.000 7
131.000 48
132.000 22
133.000 6
134.000 7
135.000 4
136.000 3
137.000 128
138.000 5
139.000 4
140.000 0
141.000 177
142.000 20
143.000 48
144.000 206
145.000 42
146.000 35
147.000 19
148.000 9
149.000 13
150.000 5
151.000 14
152.000 78
153.000 422
154.000 72
155.000 522
156.000 125
157.000 66
158.000 144
159.000 213
160.000 38
161.000 336
162.000 22
163.000 11
164.000 31
165.000 999
166.000 92
167.000 89
168.000 179
169.000 76
170.000 69
171.000 481
172.000 192
173.000 38
174.000 61
175.000 84
176.000 18
177.000 48
178.000 91
179.000 89
180.000 44
181.000 510
182.000 183
183.000 485
184.000 109
185.000 204
186.000 100
187.000 262
188.000 18
189.000 41
190.000 57
191.000 134
192.000 30
193.000 235
194.000 298
195.000 85
196.000 26
197.000 190
198.000 181
199.000 690
200.000 138
201.000 92
202.000 36
203.000 25
204.000 4
205.000 32
206.000 20
207.000 69
208.000 81
209.000 169
210.000 170
211.000 98
212.000 127
213.000 171
214.000 28
215.000 354
216.000 25
217.000 3
218.000 30
219.000 62
220.000 84
221.000 90
222.000 23
223.000 186
224.000 39
225.000 346
226.000 52
227.000 27
228.000 29
229.000 5
230.000 4
231.000 1
232.000 2
233.000 5
234.000 11
235.000 28
236.000 55
237.000 21
238.000 36
239.000 37
240.000 10
241.000 164
242.000 14
243.000 92
244.000 5
246.000 1
248.000 26
249.000 8
250.000 45
251.000 33
252.000 31
253.000 11
254.000 11
256.000 3
257.000 1
264.000 2
265.000 2
266.000 115
267.000 34
268.000 6
269.000 3
270.000 1
272.000 0
280.000 0
281.000 0
282.000 19
283.000 2
284.000 1
285.000 12
298.000 1
299.000 2
300.000 418
301.000 48

Name: 2'-Hydroxygenistein-7-O-glucoside
DB#: MSBNK-IPB_Halle-PN000116
InChIKey: VYYHGKQKCBDQKO-CMWLGVBASA-N
InChI: InChI=1S/C21H20O11/c22-6-15-18(27)19(28)20(29)21(32-15)31-9-4-13(25)16-14(5-9)30-7-11(17(16)26)10-2-1-8(23)3-12(10)24/h1-5,7,15,18-25,27-29H,6H2/t15-,18-,19+,20-,21-/m1/s1
SMILES: C1=CC(=C(C=C1O)O)C2=COC3=CC(=CC(=C3C2=O)O)O[C@H]4[C@@H]([C@H]([C@@H]([C@H](O4)CO)O)O)O
Precursor_type: [M+H]+
Spectrum_type: MS2
PrecursorMZ: 449.103
Instrument_type: ESI-TOF
Instrument: micrOTOF-Q
Ion_mode: POSITIVE
Collision_energy: 15 eV
Formula: C21H20O11
MW: 448
ExactMass: 448.10056146
Comments: Parent=449.103
Splash: splash10-000i-0090000000-4fb3bf4b4ce8dbe007ab
Num Peaks: 2
287.0520 999
288.0551 148

Name: Camalexin
Synon: 3-(1,3-thiazol-2-yl)-1H-indole
DB#: MSBNK-IPB_Halle-PB000526
InChIKey: IYODIJVWGPRBGQ-UHFFFAOYSA-N
InChI: InChI=1S/C11H8N2S/c1-2-4-10-8(3-1)9(7-13-10)11-12-5-6-14-11/h1-7,13H
SMILES: C1=CC=C2C(=C1)C(=CN2)C3=NC=CS3
Precursor_type: [M+H]+
Spectrum_type: MS2
Instrument_type: LC-ESI-QTOF
Instrument: API QSTAR Pulsar i
Ion_mode: POSITIVE
Collision_energy: 55 eV
Formula: C11H8N2S
MW: 200
ExactMass: 200.04082
Comments: Parent=-1
Splash: splash10-0aor-9800000000-a16dc6829b96b2ef1e8c
Num Peaks: 34
57.987 316
58.995 999
59.999 6
63.025 16
65.041 12
77.038 63
88.029 19
89.038 425
90.045 187
91.054 31
98.009 16
102.044 32
103.055 88
114.039 44
115.041 182
116.049 466
117.056 277
128.046 26
129.055 65
130.063 128
133.009 30
140.053 35
141.058 25
142.053 292
143.059 116
148.018 8
155.053 6
156.073 5
160.023 66
168.065 10
172.021 8
173.029 95
200.048 15
201.038 7

Name: Quercetin
Synon: 2-(3,4-dihydroxyphenyl)-3,5,7-trihydroxychromen-4-one
DB#: MSBNK-IPB_Halle-PB006206
InChIKey: REFJWTPEDVJJIY-UHFFFAOYSA-N
InChI: InChI=1S/C15H10O7/c16-7-4-10(19)12-11(5-7)22-15(14(21)13(12)20)6-1-2-8(17)9(18)3-6/h1-5,16-19,21H
SMILES: C1=CC(=C(C=C1C2=C(C(=O)C3=C(C=C(C=C3O2)O)O)O)O)O
Precursor_type: [M+H]+
Spectrum_type: MS2
Instrument_type: LC-ESI-QTOF
Instrument: micrOTOF-Q
Ion_mode: POSITIVE
Collision_energy: 20 eV
Formula: C15H10O7
MW: 302
ExactMass: 302.04265
Comments: Parent=-1
Splash: splash10-0udi-0029000000-1e32d3a4d88d86d283a2
Num Peaks: 43
121.028 0
137.022 10
149.022 2
153.017 20
154.021 0
161.059 0
163.038 1
165.016 16
166.022 1
183.029 4
187.036 0
195.026 2
201.051 9
202.055 0
205.045 1
207.027 0
211.036 0
213.051 1
215.030 1
219.054 6
228.040 2
229.046 78
230.050 7
233.037 1
239.029 2
245.045 0
246.049 0
247.056 21
248.059 1
257.041 71
258.044 8
267.019 0
274.043 19
275.049 9
285.036 37
286.038 6
302.763 0
303.046 999
303.423 0
303.633 0
304.049 120
304.157 0
305.050 3

Name: (-)-Epicatechin
Synon: (2R,3R)-2-(3,4-dihydroxyphenyl)-3,4-dihydro-2H-chromene-3,5,7-triol
DB#: MSBNK-IPB_Halle-PB006301
InChIKey: PFTAWBLQPZVEMU-UKRRQHHQSA-N
InChI: InChI=1S/C15H14O6/c16-8-4-11(18)9-6-13(20)15(21-14(9)5-8)7-1-2-10(17)12(19)3-7/h1-5,13,15-20H,6H2/t13-,15-/m1/s1
SMILES: C1[C@H]([C@H](OC2=CC(=CC(=C21)O)O)C3=CC(=C(C=C3)O)O)O
Precursor_type: [M+H]+
Spectrum_type: MS2
Instrument_type: LC-ESI-QTOF
Instrument: micrOTOF-Q
Ion_mode: POSITIVE
Collision_energy: 15 eV
Formula: C15H14O6
MW: 290
ExactMass: 290.07904
Comments: Parent=-1
Splash: splash10-000i-0910000000-f4f5b80f5b0732e8faf4
Num Peaks: 53
119.048 7
121.028 0
123.043 270
124.046 19
127.039 4
135.043 4
137.020 1
137.059 3
138.954 0
139.037 999
139.203 0
140.042 52
141.044 0
143.049 8
147.043 205
148.046 16
151.037 25
152.046 1
153.052 8
159.042 1
161.058 62
162.061 4
163.037 19
164.040 1
165.052 127
166.055 8
167.029 1
169.047 25
177.054 8
178.062 0
179.068 56
180.072 2
181.047 19
185.057 0
187.068 0
189.052 26
190.053 1
203.066 4
205.083 9
206.088 0
207.062 254
208.066 23
213.052 5
227.066 2
231.064 17
245.073 2
249.071 32
250.077 3
255.062 7
273.073 29
274.072 1
291.082 34
292.087 2

Name: 3-Acetylindole
Synon: 1-(1H-indol-3-yl)ethanone
DB#: MSBNK-IPB_Halle-PB000497
InChIKey: VUIMBZIZZFSQEE-UHFFFAOYSA-N
InChI: InChI=1S/C10H9NO/c1-7(12)9-6-11-10-5-3-2-4-8(9)10/h2-6,11H,1H3
SMILES: CC(=O)C1=CNC2=CC=CC=C21
Precursor_type: [M+H]+
Spectrum_type: MS2
Instrument_type: LC-ESI-QTOF
Instrument: API QSTAR Pulsar i
Ion_mode: POSITIVE
Collision_energy: 30 eV
Formula: C10H9NO
MW: 159
ExactMass: 159.06841
Comments: Parent=-1
Splash: splash10-00kf-9400000000-80ad5031f2ccd292f224
Num Peaks: 5
43.019 999
91.056 79
117.060 20
118.067 501
160.078 18

Name: Emetine
Synon: (2S,3R,11bS)-2-[[(1R)-6,7-dimethoxy-1,2,3,4-tetrahydroisoquinolin-1-yl]methyl]-3-ethyl-9,10-dimethoxy-2,3,4,6,7,11b-hexahydro-1H-pyrido[2,1-a]isoquinoline
DB#: MSBNK-IPB_Halle-PB005911
InChIKey: AUVVAXYIELKVAI-CKBKHPSWSA-N
InChI: InChI=1S/C29H40N2O4/c1-6-18-17-31-10-8-20-14-27(33-3)29(35-5)16-23(20)25(31)12-21(18)11-24-22-15-28(34-4)26(32-2)13-19(22)7-9-30-24/h13-16,18,21,24-25,30H,6-12,17H2,1-5H3/t18-,21-,24+,25-/m0/s1
SMILES: CC[C@H]1CN2CCC3=CC(=C(C=C3[C@@H]2C[C@@H]1C[C@@H]4C5=CC(=C(C=C5CCN4)OC)OC)OC)OC
Precursor_type: [M+H]+
Spectrum_type: MS2
Instrument_type: LC-ESI-QTOF
Instrument: micrOTOF-Q
Ion_mode: POSITIVE
Collision_energy: 20 eV
Formula: C29H40N2O4
MW: 480
ExactMass: 480.29881
Comments: Parent=-1
Splash: splash10-001i-0000900000-52ea32d78e748efa98cc
Num Peaks: 31
165.089 0
177.088 0
179.105 0
191.100 0
192.100 2
194.116 2
206.115 1
220.132 2
244.132 0
246.146 58
247.149 5
257.149 2
272.161 6
273.165 0
274.176 43
275.181 4
286.179 0
288.192 2
300.191 3
464.275 49
465.279 10
479.287 4
480.292 2
480.767 0
480.950 0
481.301 999
481.596 0
481.835 0
481.979 0
482.304 222
483.308 6

Name: Luteone O-glucoside
DB#: MSBNK-IPB_Halle-PN000101
InChI: N/A
SMILES: N/A
Precursor_type: [M-H]-
Spectrum_type: MS2
PrecursorMZ: 515.157
Instrument_type: ESI-TOF
Instrument: micrOTOF-Q
Ion_mode: NEGATIVE
Collision_energy: 25 eV
Formula: C26H28O11
MW: 516
ExactMass: 516.163161716
Comments: Parent=515.157
Splash: splash10-0udi-0009000000-06d7e8e8f7e8a777fc8a
Num Peaks: 1
353.1023 999

Name: Naringenin chalcone
Synon: 3-(4-hydroxyphenyl)-1-(2,4,6-trihydroxyphenyl)prop-2-en-1-one
DB#: MSBNK-IPB_Halle-PB000126
InChIKey: YQHMWTPYORBCMF-ZZXKWVIFSA-N
InChI: InChI=1S/C15H12O5/c16-10-4-1-9(2-5-10)3-6-12(18)15-13(19)7-11(17)8-14(15)20/h1-8,16-17,19-20H/b6-3+
SMILES: C1=CC(=CC=C1/C=C/C(=O)C2=C(C=C(C=C2O)O)O)O
Precursor_type: [M+H]+
Spectrum_type: MS2
Instrument_type: LC-ESI-QTOF
Instrument: API QSTAR Pulsar i
Ion_mode: POSITIVE
Collision_energy: 15 eV
Formula: C15H12O5
MW: 272
ExactMass: 272.06847
Comments: Parent=-1
Splash: splash10-00di-0090000000-f174e512861692b4e263
Num Peaks: 4
147.044 29
153.018 39
273.076 999
274.084 20

Name: Indole-3-acetonitrile
Synon: 2-(1H-indol-3-yl)acetonitrile
DB#: MSBNK-IPB_Halle-PB006046
InChIKey: DMCPFOBLJMLSNX-UHFFFAOYSA-N
InChI: InChI=1S/C10H8N2/c11-6-5-8-7-12-10-4-2-1-3-9(8)10/h1-4,7,12H,5H2
SMILES: C1=CC=C2C(=C1)C(=CN2)CC#N
Precursor_type: [M+H]+
Spectrum_type: MS2
Instrument_type: LC-ESI-QTOF
Instrument: micrOTOF-Q
Ion_mode: POSITIVE
Collision_energy: 20 eV
Formula: C10H8N2
MW: 156
ExactMass: 156.06875
Comments: Parent=-1
Splash: splash10-00lr-0900000000-cc0c89a2abe2633a9003
Num Peaks: 13
116.047 9
117.056 735
118.059 60
128.048 50
129.054 5
130.063 999
130.148 0
131.066 95
132.071 1
146.058 21
147.063 0
155.058 25
156.064 3

Name: Genistein 4',7-O-diglucoside dimalonylated
DB#: MSBNK-IPB_Halle-PN000041
InChI: N/A
SMILES: N/A
Precursor_type: [M+H]+
Spectrum_type: MS2
PrecursorMZ: 767.164
Instrument_type: ESI-TOF
Instrument: micrOTOF-Q
Ion_mode: POSITIVE
Collision_energy: 15 eV
Formula: C33H34O21
MW: 766
ExactMass: 766.1592581079999
Comments: Parent=767.164
Splash: splash10-01b9-0050210900-ac474663bad156a6737e
Num Peaks: 5
271.0586 837
461.2671 415
519.1266 201
767.1721 999
768.1696 264

Name: Boldine
Synon: 4H-Dibenzo[de,g]quinoline-2,9-diol, 5,6,6a,7-tetrahydro-1,10-dimethoxy-6-methyl-, (6aS)-
DB#: MSBNK-IPB_Halle-PB001521
InChIKey: LZJRNLRASBVRRX-ZDUSSCGKSA-N
InChI: InChI=1S/C19H21NO4/c1-20-5-4-10-7-15(22)19(24-3)18-12-9-16(23-2)14(21)8-11(12)6-13(20)17(10)18/h7-9,13,21-22H,4-6H2,1-3H3/t13-/m0/s1
SMILES: CN1CCC2=CC(=C(C3=C2[C@@H]1CC4=CC(=C(C=C43)OC)O)OC)O
Precursor_type: [M+H]+
Spectrum_type: MS2
Instrument_type: LC-ESI-QQ
Instrument: TSQ 7000
Ion_mode: POSITIVE
Collision_energy: 30 eV
Formula: C19H21NO4
MW: 327
ExactMass: 327.14706
Comments: Parent=-1
Splash: splash10-014r-0090000000-4ec0cbd1c39d3f4d6bc8
Num Peaks: 48
44.000 87
45.000 18
58.000 0
165.000 1
166.000 0
177.000 17
178.000 0
191.000 1
194.000 4
195.000 0
205.000 127
206.000 3
207.000 0
209.000 5
210.000 0
211.000 0
219.000 2
222.000 26
223.000 3
225.000 13
226.000 2
233.000 122
234.000 13
235.000 1
236.000 0
237.000 618
238.000 2
239.000 5
240.000 0
247.000 0
250.000 22
251.000 9
252.000 0
253.000 20
254.000 17
255.000 2
264.000 2
265.000 999
266.000 77
267.000 28
268.000 2
269.000 2
270.000 1
282.000 129
283.000 2
297.000 205
298.000 5
328.000 6

Name: Cysteine
Synon: 2-amino-3-sulfanylpropanoic acid
DB#: MSBNK-IPB_Halle-PB000439
InChIKey: XUJNEKJLAYXESH-UHFFFAOYSA-N
InChI: InChI=1S/C3H7NO2S/c4-2(1-7)3(5)6/h2,7H,1,4H2,(H,5,6)
SMILES: C(C(C(=O)O)N)S
Precursor_type: [M+H]+
Spectrum_type: MS2
Instrument_type: LC-ESI-QTOF
Instrument: API QSTAR Pulsar i
Ion_mode: POSITIVE
Collision_energy: 30 eV
Formula: C3H7NO2S
MW: 121
ExactMass: 121.01975
Comments: Parent=-1
Splash: splash10-0a4i-9000000000-9154dd5d04eb63d96507
Num Peaks: 6
42.034 11
43.043 22
57.988 10
58.996 999
76.023 356
86.990 33

Name: 2'-Hydroxygenistein C-glucoside malonylated
Synon: 2'Hydroxygenistein C-glucoside malonylated
DB#: MSBNK-IPB_Halle-PN000023
InChI: N/A
SMILES: N/A
Precursor_type: [M-H]-
Spectrum_type: MS2
PrecursorMZ: 533.084
Instrument_type: ESI-TOF
Instrument: micrOTOF-Q
Ion_mode: NEGATIVE
Collision_energy: 25 eV
Formula: C24H22O14
MW: 534
ExactMass: 534.100955384
Comments: Parent=533.084
Splash: splash10-004i-0009000000-5f378dc6948b2ec71429
Num Peaks: 1
327.0393 999

Name: Harmane
Synon: 1-methyl-9H-pyrido[3,4-b]indole
DB#: MSBNK-IPB_Halle-PB003741
InChIKey: PSFDQSOCUJVVGF-UHFFFAOYSA-N
InChI: InChI=1S/C12H10N2/c1-8-12-10(6-7-13-8)9-4-2-3-5-11(9)14-12/h2-7,14H,1H3
SMILES: CC1=NC=CC2=C1NC3=CC=CC=C23
Precursor_type: [M+H]+
Spectrum_type: MS2
Instrument_type: LC-ESI-QQ
Instrument: TSQ 7000
Ion_mode: POSITIVE
Collision_energy: 35 eV
Formula: C12H10N2
MW: 182
ExactMass: 182.08440
Comments: Parent=-1
Splash: splash10-014i-0900000000-fbe37bd173c6820a5fbf
Num Peaks: 29
63.000 0
65.000 2
77.000 0
89.000 10
90.000 0
91.000 0
113.000 0
114.000 8
115.000 999
116.000 16
117.000 2
127.000 6
128.000 23
129.000 20
130.000 1
139.000 3
140.000 35
141.000 30
142.000 65
143.000 1
154.000 22
155.000 12
156.000 11
166.000 12
167.000 32
168.000 147
181.000 34
182.000 98
183.000 343

Name: Histidine
Synon: 2-amino-3-(3H-imidazol-4-yl)propanoic acid
DB#: MSBNK-IPB_Halle-PB000422
InChIKey: HNDVDQJCIGZPNO-UHFFFAOYSA-N
InChI: InChI=1S/C6H9N3O2/c7-5(6(10)11)1-4-2-8-3-9-4/h2-3,5H,1,7H2,(H,8,9)(H,10,11)
SMILES: C1=C(NC=N1)CC(C(=O)O)N
Precursor_type: [M+H]+
Spectrum_type: MS2
Instrument_type: LC-ESI-QTOF
Instrument: API QSTAR Pulsar i
Ion_mode: POSITIVE
Collision_energy: 15 eV
Formula: C6H9N3O2
MW: 155
ExactMass: 155.06948
Comments: Parent=-1
Splash: splash10-0bt9-0900000000-7248ecc83ccdfcc285d1
Num Peaks: 6
83.059 6
95.060 38
110.070 762
112.086 2
138.065 2
156.074 999

Name: Naringin
Synon: (2S)-7-[(2S,3R,4S,5S,6R)-4,5-dihydroxy-6-(hydroxymethyl)-3-[(2S,3R,4R,5R,6S)-3,4,5-trihydroxy-6-methyloxan-2-yl]oxyoxan-2-yl]oxy-5-hydroxy-2-(4-hydroxyphenyl)chroman-4-one
DB#: MSBNK-IPB_Halle-PB000801
InChIKey: DFPMSGMNTNDNHN-ZPHOTFPESA-N
InChI: InChI=1S/C27H32O14/c1-10-20(32)22(34)24(36)26(37-10)41-25-23(35)21(33)18(9-28)40-27(25)38-13-6-14(30)19-15(31)8-16(39-17(19)7-13)11-2-4-12(29)5-3-11/h2-7,10,16,18,20-30,32-36H,8-9H2,1H3/t10-,16-,18+,20-,21+,22+,23-,24+,25+,26-,27+/m0/s1
SMILES: C[C@H]1[C@@H]([C@H]([C@H]([C@@H](O1)O[C@@H]2[C@H]([C@@H]([C@H](O[C@H]2OC3=CC(=C4C(=O)C[C@H](OC4=C3)C5=CC=C(C=C5)O)O)CO)O)O)O)O)O
Precursor_type: [M+H]+
Spectrum_type: MS2
Instrument_type: LC-ESI-QTOF
Instrument: API QSTAR Pulsar i
Ion_mode: POSITIVE
Collision_energy: 40 eV
Formula: C27H32O14
MW: 580
ExactMass: 580.17921
Comments: Parent=-1
Splash: splash10-0fk9-2980000000-b3c4a010c4f3acb3b1ab
Num Peaks: 22
69.034 4
71.050 131
75.044 10
85.031 196
111.046 8
121.064 26
127.035 5
129.054 70
147.048 73
153.018 844
171.033 40
179.039 34
195.034 49
219.030 18
231.067 8
245.056 5
263.056 14
273.076 999
285.071 15
297.073 8
315.089 5
339.089 11

Name: Methoxyindoleacetic acid
Synon: 2-(5-methoxy-1H-indol-3-yl)acetic acid
DB#: MSBNK-IPB_Halle-PB000519
InChIKey: COCNDHOPIHDTHK-UHFFFAOYSA-N
InChI: InChI=1S/C11H11NO3/c1-15-8-2-3-10-9(5-8)7(6-12-10)4-11(13)14/h2-3,5-6,12H,4H2,1H3,(H,13,14)
SMILES: COC1=CC2=C(C=C1)NC=C2CC(=O)O
Precursor_type: [M+H]+
Spectrum_type: MS2
Instrument_type: LC-ESI-QTOF
Instrument: API QSTAR Pulsar i
Ion_mode: POSITIVE
Collision_energy: 20 eV
Formula: C11H11NO3
MW: 205
ExactMass: 205.07389
Comments: Parent=-1
Splash: splash10-03di-0900000000-e29f13bccd0ff61f4d73
Num Peaks: 3
160.075 999
161.078 22
206.079 74

Name: Kaempferol
Synon: 3,5,7-trihydroxy-2-(4-hydroxyphenyl)chromen-4-one
DB#: MSBNK-IPB_Halle-PB005705
InChIKey: IYRMWMYZSQPJKC-UHFFFAOYSA-N
InChI: InChI=1S/C15H10O6/c16-8-3-1-7(2-4-8)15-14(20)13(19)12-10(18)5-9(17)6-11(12)21-15/h1-6,16-18,20H
SMILES: C1=CC(=CC=C1C2=C(C(=O)C3=C(C=C(C=C3O2)O)O)O)O
Precursor_type: [M+H]+
Spectrum_type: MS2
Instrument_type: LC-ESI-QTOF
Instrument: micrOTOF-Q
Ion_mode: POSITIVE
Collision_energy: 25 eV
Formula: C15H10O6
MW: 286
ExactMass: 286.04774
Comments: Parent=-1
Splash: splash10-000i-0290000000-9d940e3fc827408f9272
Num Peaks: 77
121.026 20
129.071 1
133.026 5
135.041 4
137.021 19
138.025 0
139.051 1
141.066 0
145.062 8
147.042 20
148.049 0
149.023 0
153.016 141
154.023 6
157.062 21
158.068 0
161.058 5
165.017 50
166.021 5
167.047 0
168.053 0
169.067 0
171.042 6
175.040 0
175.074 0
183.026 20
184.037 0
185.056 24
186.062 0
188.045 0
189.050 3
191.029 0
194.015 1
195.039 0
197.055 4
199.036 1
201.053 1
203.038 0
203.070 6
212.045 3
213.051 109
213.127 0
214.055 8
215.063 0
216.039 6
217.047 4
218.056 0
219.063 1
223.038 2
224.043 0
229.044 20
230.052 4
231.061 56
232.061 2
234.947 1
240.036 1
241.045 65
242.050 10
243.062 8
244.069 0
245.040 2
246.046 0
257.040 3
258.048 111
258.154 0
259.055 52
260.057 4
263.051 1
269.039 21
270.043 1
285.032 1
286.039 1
287.050 999
287.214 0
287.590 0
288.053 122
289.057 3

Name: Bergapten
Synon: 4-methoxyfuro[3,2-g]chromen-7-one
DB#: MSBNK-IPB_Halle-PB006144
InChIKey: BGEBZHIAGXMEMV-UHFFFAOYSA-N
InChI: InChI=1S/C12H8O4/c1-14-12-7-2-3-11(13)16-10(7)6-9-8(12)4-5-15-9/h2-6H,1H3
SMILES: COC1=C2C=CC(=O)OC2=CC3=C1C=CO3
Precursor_type: [M+H]+
Spectrum_type: MS2
Instrument_type: LC-ESI-QTOF
Instrument: micrOTOF-Q
Ion_mode: POSITIVE
Collision_energy: 15 eV
Formula: C12H8O4
MW: 216
ExactMass: 216.04226
Comments: Parent=-1
Splash: splash10-0uxr-0090000000-53c9077581fc1617f789
Num Peaks: 25
115.052 4
117.067 0
118.040 0
131.047 6
133.063 1
143.048 3
145.062 4
146.035 5
147.039 0
158.035 5
159.040 0
161.058 18
162.062 0
173.057 30
174.029 59
175.033 3
189.053 4
201.865 0
201.910 0
202.024 999
203.027 100
204.028 4
217.047 818
218.050 90
219.052 4

Name: Kaempferol-7-O-glucoside
Synon: Populnin
DB#: MSBNK-IPB_Halle-PN000115
InChIKey: YPWHZCPMOQGCDQ-HMGRVEAOSA-N
InChI: InChI=1S/C21H20O11/c22-7-13-15(25)17(27)19(29)21(32-13)30-10-5-11(24)14-12(6-10)31-20(18(28)16(14)26)8-1-3-9(23)4-2-8/h1-6,13,15,17,19,21-25,27-29H,7H2/t13-,15-,17+,19-,21-/m1/s1
SMILES: C1=CC(=CC=C1C2=C(C(=O)C3=C(C=C(C=C3O2)O[C@H]4[C@@H]([C@H]([C@@H]([C@H](O4)CO)O)O)O)O)O)O
Precursor_type: [M-H]-
Spectrum_type: MS2
PrecursorMZ: 447.095
Instrument_type: ESI-TOF
Instrument: micrOTOF-Q
Ion_mode: NEGATIVE
Collision_energy: 25 eV
Formula: C21H20O11
MW: 448
ExactMass: 448.10056146
Comments: Parent=447.095
Splash: splash10-0019-0190100000-a75c5d9bae8139a4aa9d
Num Peaks: 17
107.009 28
151.001 296
152.005 21
164.009 14
213.052 14
229.047 12
241.048 25
257.044 227
258.047 35
284.031 708
285.037 999
286.043 125
287.043 21
412.825 32
413.821 11
447.095 180
448.097 50

Name: Quercetin
Synon: Xanthaurine
Synon: Sophoretin
Synon: Meletin
DB#: MSBNK-IPB_Halle-PN000111
InChIKey: REFJWTPEDVJJIY-UHFFFAOYSA-N
InChI: InChI=1S/C15H10O7/c16-7-4-10(19)12-11(5-7)22-15(14(21)13(12)20)6-1-2-8(17)9(18)3-6/h1-5,16-19,21H
SMILES: OC1=CC(O)=C2C(=O)C(O)=C(OC2(=C1))C3=CC=C(O)C(O)=C3
Precursor_type: [M+H]+
Spectrum_type: MS2
PrecursorMZ: 303.047
Instrument_type: ESI-TOF
Instrument: micrOTOF-Q
Ion_mode: POSITIVE
Collision_energy: 15 eV
Formula: C15H10O7
MW: 302
ExactMass: 302.04265266
Comments: Parent=303.047
Splash: splash10-0udi-0920000000-4d0945a7d8095c5a5862
Num Peaks: 41
91.052 32
103.053 32
105.038 45
107.043 44
109.028 125
110.036 36
111.010 52
115.054 80
117.068 62
121.028 169
123.042 61
127.051 91
128.058 50
129.069 28
131.050 79
135.040 45
137.023 441
145.064 203
153.017 999
154.020 80
155.047 233
157.060 28
161.063 33
163.038 50
165.019 90
166.024 31
173.057 142
179.033 46
183.039 121
184.048 44
187.037 94
200.044 39
201.053 280
202.054 36
211.038 48
228.041 39
229.049 367
230.045 53
239.029 43
257.040 69
285.037 29

Name: Caffeine
Synon: 1,3,7-trimethylpurine-2,6-dione
DB#: MSBNK-IPB_Halle-PB003783
InChIKey: RYYVLZVUVIJVGH-UHFFFAOYSA-N
InChI: InChI=1S/C8H10N4O2/c1-10-4-9-6-5(10)7(13)12(3)8(14)11(6)2/h4H,1-3H3
SMILES: CN1C=NC2=C1C(=O)N(C(=O)N2C)C
Precursor_type: [M+H]+
Spectrum_type: MS2
Instrument_type: LC-ESI-QQ
Instrument: TSQ 7000
Ion_mode: POSITIVE
Collision_energy: 35 eV
Formula: C8H10N4O2
MW: 194
ExactMass: 194.08038
Comments: Parent=-1
Splash: splash10-0006-9500000000-e06eca9e3e2ab56477d0
Num Peaks: 92
27.000 11
28.000 32
29.000 5
30.000 21
31.000 32
34.000 6
35.000 5
37.000 6
42.000 999
43.000 35
44.000 3
45.000 146
46.000 22
48.000 13
49.000 10
50.000 2
53.000 29
54.000 36
55.000 14
56.000 125
57.000 40
58.000 5
62.000 12
63.000 10
64.000 9
67.000 17
68.000 31
69.000 312
70.000 32
71.000 48
72.000 20
73.000 1
74.000 1
75.000 6
76.000 26
77.000 5
80.000 1
81.000 40
82.000 20
83.000 363
84.000 25
85.000 0
92.000 16
95.000 94
96.000 5
97.000 32
98.000 8
99.000 9
102.000 4
103.000 5
105.000 2
107.000 0
108.000 9
109.000 82
110.000 300
111.000 115
114.000 4
120.000 2
122.000 6
123.000 270
124.000 7
125.000 6
126.000 0
128.000 1
130.000 11
135.000 6
136.000 0
137.000 0
138.000 385
139.000 41
142.000 4
147.000 5
148.000 23
151.000 6
153.000 3
154.000 13
155.000 6
156.000 11
157.000 4
161.000 1
163.000 12
165.000 29
172.000 4
173.000 5
181.000 12
185.000 6
186.000 1
189.000 17
193.000 37
194.000 38
195.000 69
197.000 11

Name: Cinchonine
Synon: (S)-(5-ethenyl-1-azabicyclo[2.2.2]octan-7-yl)-quinolin-4-ylmethanol
DB#: MSBNK-IPB_Halle-PB005843
InChIKey: KMPWYEUPVWOPIM-QAMTZSDWSA-N
InChI: InChI=1S/C19H22N2O/c1-2-13-12-21-10-8-14(13)11-18(21)19(22)16-7-9-20-17-6-4-3-5-15(16)17/h2-7,9,13-14,18-19,22H,1,8,10-12H2/t13-,14-,18+,19-/m0/s1
SMILES: C=C[C@H]1CN2CC[C@H]1C[C@@H]2[C@H](C3=CC=NC4=CC=CC=C34)O
Precursor_type: [M+H]+
Spectrum_type: MS2
Instrument_type: LC-ESI-QTOF
Instrument: micrOTOF-Q
Ion_mode: POSITIVE
Collision_energy: 20 eV
Formula: C19H22N2O
MW: 294
ExactMass: 294.17321
Comments: Parent=-1
Splash: splash10-0002-0090000000-08e4d72d6ed8b898c3c8
Num Peaks: 79
122.096 0
124.110 0
130.063 18
131.067 0
132.078 1
134.094 4
135.102 0
136.108 4
138.126 1
142.063 6
143.069 4
144.078 5
154.063 8
155.071 0
156.079 11
157.083 0
158.059 0
159.067 1
166.063 1
166.120 8
167.070 1
168.078 15
169.077 5
170.091 1
171.093 0
172.075 3
180.078 5
181.076 1
182.093 0
183.089 2
184.075 1
192.079 0
194.093 2
195.094 1
196.108 4
197.104 7
198.110 0
204.077 1
205.084 0
206.093 4
207.096 2
208.108 5
209.107 3
210.118 1
214.119 0
217.084 0
218.094 2
219.098 3
220.108 5
221.106 5
222.117 10
223.119 17
224.131 4
231.102 0
232.107 3
233.110 1
234.124 24
235.121 19
236.132 16
237.134 1
238.151 1
246.124 4
247.125 1
248.139 15
249.137 6
250.149 1
252.133 7
253.134 0
260.139 0
265.165 0
266.151 4
267.178 3
275.151 1
277.165 279
278.168 44
295.175 999
295.511 0
296.179 149
297.183 1

Name: Histidine
Synon: 2-amino-3-(3H-imidazol-4-yl)propanoic acid
DB#: MSBNK-IPB_Halle-PB000425
InChIKey: HNDVDQJCIGZPNO-UHFFFAOYSA-N
InChI: InChI=1S/C6H9N3O2/c7-5(6(10)11)1-4-2-8-3-9-4/h2-3,5H,1,7H2,(H,8,9)(H,10,11)
SMILES: C1=C(NC=N1)CC(C(=O)O)N
Precursor_type: [M+H]+
Spectrum_type: MS2
Instrument_type: LC-ESI-QTOF
Instrument: API QSTAR Pulsar i
Ion_mode: POSITIVE
Collision_energy: 45 eV
Formula: C6H9N3O2
MW: 155
ExactMass: 155.06948
Comments: Parent=-1
Splash: splash10-053r-9000000000-96b5607e6af60298ad9f
Num Peaks: 17
39.022 16
41.038 38
42.034 11
43.041 7
54.034 169
55.042 104
56.049 999
66.032 166
67.040 16
68.048 80
69.044 41
81.044 469
82.052 695
83.059 868
93.044 489
95.060 40
110.070 144

Name: Erythromycin
Synon: (2R,3R,4S,5R,8R,9S,10S,11R,12R,14R)-11-[(2S,3R,4S,6R)-4-(dimethylamino)-3-hydroxy-6-methyloxan-2-yl]oxy-5-ethyl-3,4,12-trihydroxy-9-[(2R,4R,5S,6S)-5-hydroxy-4-methoxy-4,6-dimethyloxan-2-yl]oxy-2,4,8,10,12,14-hexamethyl-6-oxacyclotetradecane-1,7-dione
DB#: MSBNK-IPB_Halle-PB005803
InChIKey: ULGZDMOVFRHVEP-RWJQBGPGSA-N
InChI: InChI=1S/C37H67NO13/c1-14-25-37(10,45)30(41)20(4)27(39)18(2)16-35(8,44)32(51-34-28(40)24(38(11)12)15-19(3)47-34)21(5)29(22(6)33(43)49-25)50-26-17-36(9,46-13)31(42)23(7)48-26/h18-26,28-32,34,40-42,44-45H,14-17H2,1-13H3/t18-,19-,20+,21+,22-,23+,24+,25-,26+,28-,29+,30-,31+,32-,34+,35-,36-,37-/m1/s1
SMILES: CC[C@@H]1[C@@]([C@@H]([C@H](C(=O)[C@@H](C[C@@]([C@@H]([C@H]([C@@H]([C@H](C(=O)O1)C)O[C@H]2C[C@@]([C@H]([C@@H](O2)C)O)(C)OC)C)O[C@H]3[C@@H]([C@H](C[C@H](O3)C)N(C)C)O)(C)O)C)C)O)(C)O
Precursor_type: [M+H]+
Spectrum_type: MS2
Instrument_type: LC-ESI-QTOF
Instrument: micrOTOF-Q
Ion_mode: POSITIVE
Collision_energy: 20 eV
Formula: C37H67NO13
MW: 733
ExactMass: 733.46124
Comments: Parent=-1
Splash: splash10-004i-0200090000-b4daabb8616be713f34c
Num Peaks: 54
116.106 2
127.074 2
158.117 397
159.119 27
160.122 0
176.127 1
233.151 2
284.182 2
289.176 0
307.187 1
316.209 54
317.212 7
325.198 7
326.201 0
342.224 4
343.225 0
347.219 2
365.229 11
366.233 1
383.239 12
384.243 1
401.250 0
408.271 9
409.273 1
444.292 0
464.296 5
465.300 0
482.307 5
483.310 0
500.318 7
501.321 1
522.338 133
523.341 36
524.344 4
540.349 101
541.352 27
542.356 3
558.360 208
559.362 61
560.365 8
574.354 0
576.370 999
576.928 0
577.374 278
578.376 38
579.379 1
698.441 10
699.445 3
716.452 18
717.456 6
718.460 0
734.463 100
735.466 36
736.468 6

Name: Epicatechin
Synon: (2R,3R)-2-(3,4-dihydroxyphenyl)chroman-3,5,7-triol
DB#: MSBNK-IPB_Halle-PB001337
InChIKey: PFTAWBLQPZVEMU-UKRRQHHQSA-N
InChI: InChI=1S/C15H14O6/c16-8-4-11(18)9-6-13(20)15(21-14(9)5-8)7-1-2-10(17)12(19)3-7/h1-5,13,15-20H,6H2/t13-,15-/m1/s1
SMILES: C1[C@H]([C@H](OC2=CC(=CC(=C21)O)O)C3=CC(=C(C=C3)O)O)O
Precursor_type: [M+H]+
Spectrum_type: MS2
Instrument_type: LC-ESI-QTOF
Instrument: API QSTAR Pulsar i
Ion_mode: POSITIVE
Collision_energy: 15 eV
Formula: C15H14O6
MW: 290
ExactMass: 290.07904
Comments: Parent=-1
Splash: splash10-000f-0960000000-fe2512960f2252fc1750
Num Peaks: 15
123.043 469
139.039 752
140.042 8
147.044 32
151.039 46
163.042 7
165.058 326
169.052 31
181.054 8
207.069 13
249.080 21
273.077 49
291.086 999
291.231 52
292.090 24

Name: Genistein
Synon: 5,7-Dihydroxy-3-(4-hydroxyphenyl)chromen-4-one
Synon: 4',5,7-Trihydroxyisoflavone
DB#: MSBNK-IPB_Halle-PN000050
InChIKey: TZBJGXHYKVUXJN-UHFFFAOYSA-N
InChI: InChI=1S/C15H10O5/c16-9-3-1-8(2-4-9)11-7-20-13-6-10(17)5-12(18)14(13)15(11)19/h1-7,16-18H
SMILES: OC=1C=CC(=CC=1)C2=COC3=CC(O)=CC(O)=C3(C2(=O))
Precursor_type: [M-H]-
Spectrum_type: MS2
PrecursorMZ: 269.041
Instrument_type: ESI-TOF
Instrument: micrOTOF-Q
Ion_mode: NEGATIVE
Collision_energy: 25 eV
Formula: C15H10O5
MW: 270
ExactMass: 270.05282342
Comments: Parent=269.041
Splash: splash10-001i-0900000000-65de4f48cb54e03719ab
Num Peaks: 41
91.019 65
105.033 79
107.013 125
117.033 64
123.042 60
130.039 35
131.047 74
132.020 350
133.027 999
134.035 224
135.043 314
143.049 55
151.004 44
154.040 60
155.050 91
156.053 37
157.031 120
158.035 53
159.043 350
160.047 31
167.047 31
169.062 36
171.044 35
173.062 32
180.055 129
181.060 60
182.039 52
183.043 129
184.047 26
195.041 44
196.049 91
199.036 43
201.051 50
213.054 29
223.040 43
224.045 81
225.052 25
239.031 33
241.045 25
269.043 98
270.044 27

Name: Dopamine
Synon: 4-(2-aminoethyl)benzene-1,2-diol
DB#: MSBNK-IPB_Halle-PB000479
InChIKey: VYFYYTLLBUKUHU-UHFFFAOYSA-N
InChI: InChI=1S/C8H11NO2/c9-4-3-6-1-2-7(10)8(11)5-6/h1-2,5,10-11H,3-4,9H2
SMILES: C1=CC(=C(C=C1CCN)O)O
Precursor_type: [M+H]+
Spectrum_type: MS2
Instrument_type: LC-ESI-QTOF
Instrument: API QSTAR Pulsar i
Ion_mode: POSITIVE
Collision_energy: 20 eV
Formula: C8H11NO2
MW: 153
ExactMass: 153.07898
Comments: Parent=-1
Splash: splash10-000i-1900000000-0827bb8aa6cc224fce1e
Num Peaks: 4
91.054 148
109.063 12
119.048 168
137.059 999

Name: Marchantin G 2
Synon: Marchantin G
Synon: 4,5,17-trihydroxy-2,15-dioxapentacyclo[22.2.2.13,7.110,14.016,21]triaconta-1(26),3(30),4,6,10(29),11,13,16(21),17,19,24,27-dodecaen-8-one
DB#: MSBNK-IPB_Halle-PB010301
InChIKey: CUIZSIJMLPQKRE-UHFFFAOYSA-N
InChI: InChI=1S/C28H22O6/c29-23-6-2-4-19-10-7-17-8-11-21(12-9-17)33-26-16-20(15-25(31)27(26)32)24(30)14-18-3-1-5-22(13-18)34-28(19)23/h1-6,8-9,11-13,15-16,29,31-32H,7,10,14H2
SMILES: C1CC2=C(C(=CC=C2)O)OC3=CC=CC(=C3)CC(=O)C4=CC(=C(C(=C4)O)O)OC5=CC=C1C=C5
Precursor_type: [M+H]+
Spectrum_type: MS2
PrecursorMZ: 455.1489
Instrument_type: LC-ESI-QTOF
Instrument: Bruker MicrOTOF-Q
Ion_mode: POSITIVE
Collision_energy: 31.6361675
Formula: C28H22O6
MW: 454
ExactMass: 454.142
Comments: Parent=455.1489
Splash: splash10-01t9-0092100000-6112ba1c1085bb1aa31c
Num Peaks: 112
121.06 6
123.04 34
134.06 4
135.04 17
136.05 6
139.04 8
163.04 3
164.07 4
165.07 23
167.09 6
168.06 5
169.06 11
172.09 3
175.07 4
179.08 11
180.05 5
181.06 54
183.08 51
184.09 11
185.06 7
190.06 3
191.09 6
192.09 6
193.06 16
194.07 14
195.08 22
197.06 58
198.06 14
199.08 36
204.09 8
206.07 10
207.08 27
209.06 38
210.07 71
211.08 185
212.08 34
213.05 599
214.06 105
215.07 77
216.08 14
218.07 7
221.06 16
222.07 16
223.08 64
224.09 38
226.06 999
227.07 365
228.07 65
229.09 214
230.09 42
231.09 9
235.08 22
236.08 17
236.15 19
238.06 20
239.07 562
240.08 251
241.08 102
242.08 22
250.1 8
251.07 15
253.09 89
254.09 17
259.1 7
263.07 8
266.11 4
269.1 10
271.11 17
273.09 6
274.1 7
275.11 10
280.13 19
285.09 16
291.1 5
294.14 3
298.1 13
299.11 12
301.08 13
303.1 57
304.11 27
307.09 5
313.09 21
314.08 8
315.1 43
316.1 24
317.12 61
319.1 18
320.11 10
321.11 11
327.11 10
329.09 25
331.1 73
332.1 15
333.11 78
334.11 16
335.09 13
336.09 12
337.1 6
344.1 13
346.09 16
347.09 212
348.09 51
349.11 86
350.11 20
362.12 38
363.11 12
409.14 9
426.15 4
437.14 14
453.14 31
454.15 16
455.15 751

Name: Tyrosine
Synon: 2-amino-3-(4-hydroxyphenyl)propanoic acid
DB#: MSBNK-IPB_Halle-PB000413
InChIKey: OUYCCCASQSFEME-UHFFFAOYSA-N
InChI: InChI=1S/C9H11NO3/c10-8(9(12)13)5-6-1-3-7(11)4-2-6/h1-4,8,11H,5,10H2,(H,12,13)
SMILES: C1=CC(=CC=C1CC(C(=O)O)N)O
Precursor_type: [M+H]+
Spectrum_type: MS2
Instrument_type: LC-ESI-QTOF
Instrument: API QSTAR Pulsar i
Ion_mode: POSITIVE
Collision_energy: 30 eV
Formula: C9H11NO3
MW: 181
ExactMass: 181.07389
Comments: Parent=-1
Splash: splash10-00rf-6900000000-cfd732390ff643f7c6d8
Num Peaks: 28
43.019 2
65.039 3
67.055 1
77.039 49
81.071 4
91.054 999
92.057 13
93.070 12
94.063 4
95.050 444
96.054 4
103.056 35
105.046 2
107.050 51
108.081 6
109.066 33
117.058 1
118.067 40
119.052 693
120.053 10
121.066 12
123.045 633
124.048 8
136.076 543
137.073 13
147.045 58
165.055 6
166.988 5

Name: Kaempferol
Synon: 3,5,7-trihydroxy-2-(4-hydroxyphenyl)chromen-4-one
DB#: MSBNK-IPB_Halle-PB005702
InChIKey: IYRMWMYZSQPJKC-UHFFFAOYSA-N
InChI: InChI=1S/C15H10O6/c16-8-3-1-7(2-4-8)15-14(20)13(19)12-10(18)5-9(17)6-11(12)21-15/h1-6,16-18,20H
SMILES: C1=CC(=CC=C1C2=C(C(=O)C3=C(C=C(C=C3O2)O)O)O)O
Precursor_type: [M+H]+
Spectrum_type: MS2
Instrument_type: LC-ESI-QTOF
Instrument: micrOTOF-Q
Ion_mode: POSITIVE
Collision_energy: 10 eV
Formula: C15H10O6
MW: 286
ExactMass: 286.04774
Comments: Parent=-1
Splash: splash10-000i-0090000000-f944cca39630d68ec835
Num Peaks: 10
239.992 0
244.932 1
258.041 0
286.831 0
286.918 0
287.050 999
287.321 0
287.392 0
288.053 116
289.056 5

Name: 1-methoxyindole-3-carbaldehyde
DB#: MSBNK-IPB_Halle-PB000532
InChIKey: NFGIENSPALNOON-UHFFFAOYSA-N
InChI: InChI=1S/C10H9NO2/c1-13-11-6-8(7-12)9-4-2-3-5-10(9)11/h2-7H,1H3
SMILES: CON1C=C(C2=CC=CC=C21)C=O
Precursor_type: [M+H]+
Spectrum_type: MS2
PrecursorMZ: 176.07115
Instrument_type: LC-ESI-QTOF
Instrument: API QSTAR Pulsar i
Ion_mode: POSITIVE
Collision_energy: 25 eV
Formula: C10H9NO2
MW: 175
ExactMass: 175.06333
Comments: Parent=176.07115
Splash: splash10-0159-0900000000-d0356d0c35638bfff423
Num Peaks: 17
89.038 73
90.046 40
91.053 32
104.050 340
105.057 545
116.050 537
117.057 571
118.065 17
132.044 102
133.051 999
144.044 221
145.052 282
148.074 72
159.031 25
160.041 32
161.048 309
176.070 43

Name: Luteone O-glucoside
DB#: MSBNK-IPB_Halle-PN000104
InChI: N/A
SMILES: N/A
Precursor_type: [M-H]-
Spectrum_type: MS2
PrecursorMZ: 515.158
Instrument_type: ESI-TOF
Instrument: micrOTOF-Q
Ion_mode: NEGATIVE
Collision_energy: 25 eV
Formula: C26H28O11
MW: 516
ExactMass: 516.163161716
Comments: Parent=515.158
Splash: splash10-014i-0003090000-d3c49a9cfa35d239cdf7
Num Peaks: 8
309.0403 73
352.0949 80
353.1035 285
354.1057 76
447.1744 70
515.1579 999
516.1621 277
517.1633 59

Name: Chrysoeriol 8-C-glucoside malonylated
DB#: MSBNK-IPB_Halle-PN000049
InChI: N/A
SMILES: N/A
Precursor_type: [M+H]+
Spectrum_type: MS2
PrecursorMZ: 549.127
Instrument_type: ESI-TOF
Instrument: micrOTOF-Q
Ion_mode: POSITIVE
Collision_energy: 15 eV
Formula: C25H25O14
MW: 549
ExactMass: 549.12443048
Comments: Parent=549.127
Splash: splash10-0002-0003490000-f809bea7a9bed1745fe2
Num Peaks: 32
313.0685 17
325.0721 59
343.0831 292
344.0860 66
355.0774 14
367.0825 203
368.0888 33
373.0963 71
381.1048 29
391.0830 49
409.0902 152
410.0976 32
427.1022 78
428.1083 14
445.1190 67
463.1208 49
469.1146 275
470.1201 50
487.1297 179
488.1286 48
489.1241 20
495.0997 16
505.1336 118
506.1462 16
513.1096 153
514.1100 33
531.1113 275
532.1183 82
533.1229 16
549.1269 999
550.1274 209
551.1304 40

Name: Genistein
Synon: 5,7-Dihydroxy-3-(4-hydroxyphenyl)chromen-4-one
Synon: 4',5,7-Trihydroxyisoflavone
DB#: MSBNK-IPB_Halle-PN000051
InChIKey: TZBJGXHYKVUXJN-UHFFFAOYSA-N
InChI: InChI=1S/C15H10O5/c16-9-3-1-8(2-4-9)11-7-20-13-6-10(17)5-12(18)14(13)15(11)19/h1-7,16-18H
SMILES: OC=1C=CC(=CC=1)C2=COC3=CC(O)=CC(O)=C3(C2(=O))
Precursor_type: [M+H]+
Spectrum_type: MS2
PrecursorMZ: 271.06
Instrument_type: ESI-TOF
Instrument: micrOTOF-Q
Ion_mode: POSITIVE
Collision_energy: 15 eV
Formula: C15H10O5
MW: 270
ExactMass: 270.05282342
Comments: Parent=271.06
Splash: splash10-0fr6-2900000000-746da0d84b8a598b37b0
Num Peaks: 42
89.039 40
91.054 938
92.056 54
97.028 37
103.054 52
107.049 145
115.054 437
116.059 59
117.068 49
119.049 184
121.029 171
127.053 56
128.059 84
129.069 43
131.050 161
135.043 64
137.026 35
141.068 471
142.075 55
144.055 95
145.055 86
147.046 54
149.024 97
150.032 54
152.057 48
153.018 999
154.023 80
155.048 94
159.046 81
165.015 43
168.058 71
169.063 314
170.067 59
172.051 36
183.041 42
187.068 38
197.060 262
198.063 40
200.044 110
213.053 49
215.069 142
243.063 59

Name: Phloretin
Synon: 3-(4-hydroxyphenyl)-1-(2,4,6-trihydroxyphenyl)propan-1-one
DB#: MSBNK-IPB_Halle-PB000702
InChIKey: VGEREEWJJVICBM-UHFFFAOYSA-N
InChI: InChI=1S/C15H14O5/c16-10-4-1-9(2-5-10)3-6-12(18)15-13(19)7-11(17)8-14(15)20/h1-2,4-5,7-8,16-17,19-20H,3,6H2
SMILES: C1=CC(=CC=C1CCC(=O)C2=C(C=C(C=C2O)O)O)O
Precursor_type: [M+H]+
Spectrum_type: MS2
Instrument_type: LC-ESI-QTOF
Instrument: API QSTAR Pulsar i
Ion_mode: POSITIVE
Collision_energy: 55 eV
Formula: C15H14O5
MW: 274
ExactMass: 274.08412
Comments: Parent=-1
Splash: splash10-0a4i-2900000000-b071b34e8decf08d20cb
Num Peaks: 8
55.020 13
67.018 9
77.039 154
79.055 66
95.051 25
107.049 999
108.052 27
123.043 13

Name: Genistein 4',7-O-diglucoside malonylated
DB#: MSBNK-IPB_Halle-PN000031
InChI: N/A
SMILES: N/A
Precursor_type: [M+H]+
Spectrum_type: MS2
PrecursorMZ: 681.172
Instrument_type: ESI-TOF
Instrument: micrOTOF-Q
Ion_mode: POSITIVE
Collision_energy: 15 eV
Formula: C30H32O18
MW: 680
ExactMass: 680.158864184
Comments: Parent=681.172
Splash: splash10-00di-0090030000-b6f46a0d14769cbf36ee
Num Peaks: 2
271.0635 999
519.1231 389

Name: Methionine
Synon: 2-amino-4-methylsulfanylbutanoic acid
DB#: MSBNK-IPB_Halle-PB000441
InChIKey: FFEARJCKVFRZRR-UHFFFAOYSA-N
InChI: InChI=1S/C5H11NO2S/c1-9-3-2-4(6)5(7)8/h4H,2-3,6H2,1H3,(H,7,8)
SMILES: CSCCC(C(=O)O)N
Precursor_type: [M+H]+
Spectrum_type: MS2
Instrument_type: LC-ESI-QTOF
Instrument: API QSTAR Pulsar i
Ion_mode: POSITIVE
Collision_energy: 15 eV
Formula: C5H11NO2S
MW: 149
ExactMass: 149.05105
Comments: Parent=-1
Splash: splash10-0udi-1900000000-83702a37901ca71b058c
Num Peaks: 7
56.051 254
61.012 46
74.060 23
102.056 168
104.054 999
133.033 667
150.058 422

Name: 5-hydroxy-2-[4-hydroxy-3-[(2S,3R,4S,5R,6R)-3,4,5-trihydroxy-6-(hydroxymethyl)oxan-2-yl]oxy-phenyl]-7-[(2S,3R,4S,5R,6R)-3,4,5-trihydroxy-6-(hydroxymethyl)oxan-2-yl]oxy-chromen-4-one
Synon: luteolin-3',7-di-O-glucoside
Synon: Luteolin 3',7-O-diglucoside
Synon: Luteolin-7,3'-di-O-glucoside
Synon: Lutl-3p-Glc-7-Glc
DB#: MSBNK-IPB_Halle-PN000057
InChIKey: BISZYPSIZGKOFA-IPOZFMEPSA-N
InChI: InChI=1S/C27H30O16/c28-7-17-20(33)22(35)24(37)26(42-17)39-10-4-12(31)19-13(32)6-14(40-16(19)5-10)9-1-2-11(30)15(3-9)41-27-25(38)23(36)21(34)18(8-29)43-27/h1-6,17-18,20-31,33-38H,7-8H2/t17-,18-,20-,21-,22+,23+,24-,25-,26-,27-/m1/s1
SMILES: C1=CC(=C(C=C1C2=CC(=O)C3=C(C=C(C=C3O2)O[C@H]4[C@@H]([C@H]([C@@H]([C@H](O4)CO)O)O)O)O)O[C@H]5[C@@H]([C@H]([C@@H]([C@H](O5)CO)O)O)O)O
Precursor_type: [M-H]-
Spectrum_type: MS2
PrecursorMZ: 609.147
Instrument_type: ESI-TOF
Instrument: micrOTOF-Q
Ion_mode: NEGATIVE
Collision_energy: 25 eV
Formula: C27H30O16
MW: 610
ExactMass: 610.15338
Comments: Parent=609.147
Splash: splash10-0002-0000900000-460b180f7125582943ae
Num Peaks: 4
285.0392 24
447.0927 999
448.0968 214
449.0982 42

Name: Citrulline
Synon: 2-amino-5-(carbamoylamino)pentanoic acid
DB#: MSBNK-IPB_Halle-PB000434
InChIKey: RHGKLRLOHDJJDR-UHFFFAOYSA-N
InChI: InChI=1S/C6H13N3O3/c7-4(5(10)11)2-1-3-9-6(8)12/h4H,1-3,7H2,(H,10,11)(H3,8,9,12)
SMILES: C(CC(C(=O)O)N)CNC(=O)N
Precursor_type: [M+H]+
Spectrum_type: MS2
Instrument_type: LC-ESI-QTOF
Instrument: API QSTAR Pulsar i
Ion_mode: POSITIVE
Collision_energy: 25 eV
Formula: C6H13N3O3
MW: 175
ExactMass: 175.09569
Comments: Parent=-1
Splash: splash10-0229-8900000000-5d67f9e4981d705aee40
Num Peaks: 20
68.051 3
70.067 999
71.054 7
74.024 0
84.045 3
86.060 26
87.093 2
88.076 2
96.046 11
97.076 7
98.061 3
99.045 1
113.071 694
114.055 110
115.087 53
116.073 77
141.066 6
142.050 7
149.023 2
159.078 140

Name: 4-methylumbelliferyl glucuronide
Synon: (2S,3S,4S,5R,6S)-3,4,5-trihydroxy-6-(4-methyl-2-oxochromen-7-yl)oxyoxane-2-carboxylic acid
DB#: MSBNK-IPB_Halle-PB006264
InChIKey: ARQXEQLMMNGFDU-JHZZJYKESA-N
InChI: InChI=1S/C16H16O9/c1-6-4-10(17)24-9-5-7(2-3-8(6)9)23-16-13(20)11(18)12(19)14(25-16)15(21)22/h2-5,11-14,16,18-20H,1H3,(H,21,22)/t11-,12-,13+,14-,16+/m0/s1
SMILES: CC1=CC(=O)OC2=C1C=CC(=C2)O[C@H]3[C@@H]([C@H]([C@@H]([C@H](O3)C(=O)O)O)O)O
Precursor_type: [M+H]+
Spectrum_type: MS2
Instrument_type: LC-ESI-QTOF
Instrument: micrOTOF-Q
Ion_mode: POSITIVE
Collision_energy: 10 eV
Formula: C16H16O9
MW: 352
ExactMass: 352.07943
Comments: Parent=-1
Splash: splash10-004i-0904000000-1d3bd9722e50d4ee1054
Num Peaks: 7
177.053 999
177.196 0
178.057 72
179.058 0
353.083 438
354.086 60
355.087 1

Name: Caffeoylcholine
Synon: 2-[(E)-3-(3,4-dihydroxyphenyl)prop-2-enoyl]oxyethyl-trimethylazanium
DB#: MSBNK-IPB_Halle-PB000319
InChIKey: HLGBXKIGYXVIFU-UHFFFAOYSA-O
InChI: InChI=1S/C14H19NO4/c1-15(2,3)8-9-19-14(18)7-5-11-4-6-12(16)13(17)10-11/h4-7,10H,8-9H2,1-3H3,(H-,16,17,18)/p+1
SMILES: C[N+](C)(C)CCOC(=O)C=CC1=CC(=C(C=C1)O)O
Precursor_type: [M]+
Spectrum_type: MS2
Instrument_type: LC-ESI-QTOF
Instrument: API QSTAR Pulsar i
Ion_mode: POSITIVE
Collision_energy: 25 eV
Formula: [C14H20NO4]+
MW: 266
ExactMass: 266.13923
Comments: Parent=-1
Splash: splash10-0a4i-0190000000-17ce995eaa627ca150ed
Num Peaks: 2
163.041 133
207.066 999

Name: Kaempferol
Synon: 3,5,7-trihydroxy-2-(4-hydroxyphenyl)chromen-4-one
DB#: MSBNK-IPB_Halle-PB004142
InChIKey: IYRMWMYZSQPJKC-UHFFFAOYSA-N
InChI: InChI=1S/C15H10O6/c16-8-3-1-7(2-4-8)15-14(20)13(19)12-10(18)5-9(17)6-11(12)21-15/h1-6,16-18,20H
SMILES: C1=CC(=CC=C1C2=C(C(=O)C3=C(C=C(C=C3O2)O)O)O)O
Precursor_type: [M-H]-
Spectrum_type: MS2
Instrument_type: LC-ESI-QQ
Instrument: TSQ QUANTUM AM
Ion_mode: NEGATIVE
Collision_energy: 35 eV
Formula: C15H10O6
MW: 286
ExactMass: 286.04774
Comments: Parent=-1
Splash: splash10-000l-0930000000-947afb7405c4ceaa009e
Num Peaks: 150
59.000 5
60.000 0
63.000 23
64.000 3
65.000 78
66.000 2
67.000 37
69.000 11
77.000 6
78.000 4
79.000 22
80.000 10
83.000 98
89.000 5
90.000 1
91.000 90
92.000 63
93.000 698
94.000 16
95.000 115
97.000 17
102.000 0
103.000 1
104.000 1
105.000 51
107.000 189
108.000 303
109.000 254
110.000 4
111.000 9
113.000 0
115.000 58
117.000 913
118.000 8
119.000 215
120.000 96
121.000 140
123.000 153
124.000 22
125.000 24
126.000 1
127.000 8
128.000 17
129.000 135
130.000 123
131.000 239
132.000 55
133.000 198
134.000 2
135.000 319
136.000 136
137.000 194
139.000 38
140.000 0
141.000 147
142.000 18
143.000 796
144.000 8
145.000 662
146.000 57
147.000 35
148.000 16
149.000 6
150.000 8
151.000 144
152.000 1
153.000 17
154.000 378
155.000 473
156.000 375
157.000 644
158.000 279
159.000 931
160.000 5
161.000 514
162.000 12
163.000 175
164.000 121
165.000 56
167.000 386
168.000 132
169.000 274
170.000 64
171.000 513
172.000 12
173.000 331
174.000 41
175.000 50
178.000 0
179.000 10
180.000 12
181.000 2
182.000 269
183.000 679
184.000 398
185.000 605
186.000 29
187.000 711
188.000 20
189.000 30
190.000 23
191.000 112
192.000 22
193.000 0
194.000 3
195.000 309
196.000 109
197.000 64
198.000 104
199.000 118
200.000 72
201.000 167
202.000 34
205.000 6
210.000 177
211.000 975
212.000 68
213.000 275
214.000 345
215.000 77
216.000 10
217.000 24
219.000 41
223.000 39
224.000 13
225.000 13
226.000 20
227.000 931
228.000 33
229.000 255
231.000 0
237.000 3
238.000 59
239.000 822
240.000 145
241.000 24
242.000 8
243.000 114
250.000 0
255.000 539
256.000 47
257.000 37
258.000 1
266.000 1
267.000 172
268.000 80
269.000 14
283.000 13
284.000 18
285.000 999

Name: Chelidonin
Synon: (+)-Chelidonine
Synon: [1,3]Benzodioxolo[5,6-c]-1,3-dioxolo[4,5-i]phenanthridin-6-ol, 5b,6,7,12b,13,14-hexahydro-13-methyl-, (5bR,6S,12bS)-
DB#: MSBNK-IPB_Halle-PB001601
InChIKey: GHKISGDRQRSCII-ZOCIIQOWSA-N
InChI: InChI=1S/C20H19NO5/c1-21-7-13-11(2-3-15-20(13)26-9-23-15)18-14(22)4-10-5-16-17(25-8-24-16)6-12(10)19(18)21/h2-3,5-6,14,18-19,22H,4,7-9H2,1H3/t14-,18-,19+/m0/s1
SMILES: CN1CC2=C(C=CC3=C2OCO3)[C@@H]4[C@H]1C5=CC6=C(C=C5C[C@@H]4O)OCO6
Precursor_type: [M+H]+
Spectrum_type: MS2
Instrument_type: LC-ESI-QQ
Instrument: TSQ 7000
Ion_mode: POSITIVE
Collision_energy: 25 eV
Formula: C20H19NO5
MW: 353
ExactMass: 353.126323
Comments: Parent=-1
Splash: splash10-0fb9-0079000000-3144c8a147cf5ecb80ef
Num Peaks: 54
32.000 4
33.000 3
103.000 1
135.000 53
136.000 5
143.000 1
149.000 4
150.000 0
151.000 0
159.000 0
161.000 16
162.000 1
163.000 26
164.000 4
173.000 12
174.000 1
175.000 0
176.000 6
177.000 0
187.000 3
188.000 6
189.000 3
190.000 1
217.000 2
235.000 2
237.000 4
245.000 0
247.000 106
248.000 4
249.000 0
251.000 0
263.000 1
265.000 16
266.000 1
267.000 1
275.000 999
276.000 18
277.000 0
279.000 0
293.000 37
294.000 1
295.000 84
296.000 7
304.000 0
305.000 336
306.000 19
307.000 4
323.000 454
324.000 19
334.000 0
336.000 93
337.000 4
354.000 662
355.000 35

Name: Epicatechin
Synon: (2R,3R)-2-(3,4-dihydroxyphenyl)chroman-3,5,7-triol
DB#: MSBNK-IPB_Halle-PB001340
InChIKey: PFTAWBLQPZVEMU-UKRRQHHQSA-N
InChI: InChI=1S/C15H14O6/c16-8-4-11(18)9-6-13(20)15(21-14(9)5-8)7-1-2-10(17)12(19)3-7/h1-5,13,15-20H,6H2/t13-,15-/m1/s1
SMILES: C1[C@H]([C@H](OC2=CC(=CC(=C21)O)O)C3=CC(=C(C=C3)O)O)O
Precursor_type: [M+H]+
Spectrum_type: MS2
Instrument_type: LC-ESI-QTOF
Instrument: API QSTAR Pulsar i
Ion_mode: POSITIVE
Collision_energy: 55 eV
Formula: C15H14O6
MW: 290
ExactMass: 290.07904
Comments: Parent=-1
Splash: splash10-00di-3900000000-2260fbbede6201a20fd2
Num Peaks: 34
53.042 14
55.019 131
65.039 71
67.018 29
67.055 49
68.998 96
69.033 18
71.014 8
77.039 78
79.055 11
81.070 7
83.051 30
91.055 140
93.035 50
95.051 40
97.030 15
103.056 14
105.036 70
107.050 12
111.044 121
115.054 173
119.049 204
121.032 18
123.043 999
124.047 22
127.039 7
131.048 26
133.062 23
137.026 31
139.039 276
143.048 48
147.043 136
161.062 36
163.042 12

Name: Amentoflavone
Synon: 8-[5-(5,7-dihydroxy-4-oxochromen-2-yl)-2-hydroxyphenyl]-5,7-dihydroxy-2-(4-hydroxyphenyl)chromen-4-one
DB#: MSBNK-IPB_Halle-PB006305
InChIKey: YUSWMAULDXZHPY-UHFFFAOYSA-N
InChI: InChI=1S/C30H18O10/c31-15-4-1-13(2-5-15)24-12-23(38)29-21(36)10-20(35)27(30(29)40-24)17-7-14(3-6-18(17)33)25-11-22(37)28-19(34)8-16(32)9-26(28)39-25/h1-12,31-36H
SMILES: C1=CC(=CC=C1C2=CC(=O)C3=C(O2)C(=C(C=C3O)O)C4=C(C=CC(=C4)C5=CC(=O)C6=C(C=C(C=C6O5)O)O)O)O
Precursor_type: [M+H]+
Spectrum_type: MS2
Instrument_type: LC-ESI-QTOF
Instrument: micrOTOF-Q
Ion_mode: POSITIVE
Collision_energy: 20 eV
Formula: C30H18O10
MW: 538
ExactMass: 538.09000
Comments: Parent=-1
Splash: splash10-000i-0000090000-3d45e3164b8d5d4877f0
Num Peaks: 21
335.048 0
377.061 3
387.080 1
403.042 8
421.052 1
497.081 0
538.613 0
538.764 0
538.881 0
539.090 999
539.332 0
539.437 0
539.513 1
539.639 0
539.818 0
539.928 0
540.093 280
540.349 0
540.482 0
540.712 0
541.097 27

Name: Quercetin
Synon: Xanthaurine
Synon: Sophoretin
Synon: Meletin
DB#: MSBNK-IPB_Halle-PN000110
InChIKey: REFJWTPEDVJJIY-UHFFFAOYSA-N
InChI: InChI=1S/C15H10O7/c16-7-4-10(19)12-11(5-7)22-15(14(21)13(12)20)6-1-2-8(17)9(18)3-6/h1-5,16-19,21H
SMILES: OC1=CC(O)=C2C(=O)C(O)=C(OC2(=C1))C3=CC=C(O)C(O)=C3
Precursor_type: [M-H]-
Spectrum_type: MS2
PrecursorMZ: 301.032
Instrument_type: ESI-TOF
Instrument: micrOTOF-Q
Ion_mode: NEGATIVE
Collision_energy: 25 eV
Formula: C15H10O7
MW: 302
ExactMass: 302.04265266
Comments: Parent=301.032
Splash: splash10-0kmi-0900000000-16c577ced5fc094ab637
Num Peaks: 7
93.033 319
107.011 666
121.029 999
139.039 187
149.027 183
151.002 951
161.026 146

Name: Methionine
Synon: 2-amino-4-methylsulfanylbutanoic acid
DB#: MSBNK-IPB_Halle-PB000440
InChIKey: FFEARJCKVFRZRR-UHFFFAOYSA-N
InChI: InChI=1S/C5H11NO2S/c1-9-3-2-4(6)5(7)8/h4H,2-3,6H2,1H3,(H,7,8)
SMILES: CSCCC(C(=O)O)N
Precursor_type: [M+H]+
Spectrum_type: MS2
Instrument_type: LC-ESI-QTOF
Instrument: API QSTAR Pulsar i
Ion_mode: POSITIVE
Collision_energy: 10 eV
Formula: C5H11NO2S
MW: 149
ExactMass: 149.05105
Comments: Parent=-1
Splash: splash10-0udi-0900000000-c9263687f6e32445137a
Num Peaks: 4
102.056 14
104.055 197
133.033 210
150.058 999

Name: Spermine
Synon: N,N'-bis(3-aminopropyl)butane-1,4-diamine
DB#: MSBNK-IPB_Halle-PB000487
InChIKey: PFNFFQXMRSDOHW-UHFFFAOYSA-N
InChI: InChI=1S/C10H26N4/c11-5-3-9-13-7-1-2-8-14-10-4-6-12/h13-14H,1-12H2
SMILES: C(CCNCCCN)CNCCCN
Precursor_type: [M+H]+
Spectrum_type: MS2
Instrument_type: LC-ESI-QTOF
Instrument: API QSTAR Pulsar i
Ion_mode: POSITIVE
Collision_energy: 15 eV
Formula: C10H26N4
MW: 202
ExactMass: 202.21575
Comments: Parent=-1
Splash: splash10-0ufr-0890000000-6c642f7409e64c7af826
Num Peaks: 3
112.113 117
129.138 873
203.223 999

Name: Serine
Synon: 2-amino-3-hydroxypropanoic acid
DB#: MSBNK-IPB_Halle-PB000401
InChIKey: MTCFGRXMJLQNBG-UHFFFAOYSA-N
InChI: InChI=1S/C3H7NO3/c4-2(1-5)3(6)7/h2,5H,1,4H2,(H,6,7)
SMILES: C(C(C(=O)O)N)O
Precursor_type: [M+H]+
Spectrum_type: MS2
Instrument_type: LC-ESI-QTOF
Instrument: API QSTAR Pulsar i
Ion_mode: POSITIVE
Collision_energy: 20 eV
Formula: C3H7NO3
MW: 105
ExactMass: 105.04259
Comments: Parent=-1
Splash: splash10-03di-9000000000-948720369b4759232b19
Num Peaks: 6
42.035 100
43.019 6
60.045 999
70.030 79
88.041 78
106.053 20

Name: Naringenin
Synon: 5,7-dihydroxy-2-(4-hydroxyphenyl)chroman-4-one
DB#: MSBNK-IPB_Halle-PB002404
InChIKey: FTVWIRXFELQLPI-ZDUSSCGKSA-N
InChI: InChI=1S/C15H12O5/c16-9-3-1-8(2-4-9)13-7-12(19)15-11(18)5-10(17)6-14(15)20-13/h1-6,13,16-18H,7H2/t13-/m0/s1
SMILES: C1[C@H](OC2=CC(=CC(=C2C1=O)O)O)C3=CC=C(C=C3)O
Precursor_type: [M-H]-
Spectrum_type: MS2
Instrument_type: LC-ESI-QTOF
Instrument: API QSTAR Pulsar i
Ion_mode: NEGATIVE
Collision_energy: 55 eV
Formula: C15H12O5
MW: 272
ExactMass: 272.06847
Comments: Parent=-1
Splash: splash10-014i-6900000000-300152f0ae1c29f00dca
Num Peaks: 13
63.025 297
65.004 458
68.999 18
83.012 92
93.035 99
107.016 74
108.024 12
115.057 9
117.035 95
119.050 999
143.053 23
145.031 23
187.037 11

Name: Berberine
Synon: 9,10-dimethoxy-5,6-dihydro[1,3]dioxolo[4,5-g]isoquino[3,2-a]isoquinolin-7-ium
DB#: MSBNK-IPB_Halle-PB005921
InChIKey: YBHILYKTIRIUTE-UHFFFAOYSA-N
InChI: InChI=1S/C20H18NO4/c1-22-17-4-3-12-7-16-14-9-19-18(24-11-25-19)8-13(14)5-6-21(16)10-15(12)20(17)23-2/h3-4,7-10H,5-6,11H2,1-2H3/q+1
SMILES: COC1=C(C2=C[N+]3=C(C=C2C=C1)C4=CC5=C(C=C4CC3)OCO5)OC
Precursor_type: [M]+
Spectrum_type: MS2
PrecursorMZ: 336.12358
Instrument_type: LC-ESI-QTOF
Instrument: micrOTOF-Q
Ion_mode: POSITIVE
Collision_energy: 20 eV
Formula: [C20H18NO4]+
MW: 336
ExactMass: 336.12358
Comments: Parent=336.12358
Splash: splash10-00dr-0019000000-a0c1c55261d223b09256
Num Peaks: 24
263.081 0
275.090 12
276.094 1
278.076 23
279.081 2
291.084 9
292.092 344
293.096 47
294.097 0
303.085 0
304.093 76
305.097 15
306.072 158
307.076 29
308.083 0
318.070 6
320.087 411
321.094 807
322.098 115
323.099 2
336.118 999
336.566 0
337.121 171
338.123 3

Name: 3-Acetylindole
Synon: 1-(1H-indol-3-yl)ethanone
DB#: MSBNK-IPB_Halle-PB000495
InChIKey: VUIMBZIZZFSQEE-UHFFFAOYSA-N
InChI: InChI=1S/C10H9NO/c1-7(12)9-6-11-10-5-3-2-4-8(9)10/h2-6,11H,1H3
SMILES: CC(=O)C1=CNC2=CC=CC=C21
Precursor_type: [M+H]+
Spectrum_type: MS2
Instrument_type: LC-ESI-QTOF
Instrument: API QSTAR Pulsar i
Ion_mode: POSITIVE
Collision_energy: 10 eV
Formula: C10H9NO
MW: 159
ExactMass: 159.06841
Comments: Parent=-1
Splash: splash10-03di-0900000000-5687f5479ba231f59eac
Num Peaks: 2
118.066 8
160.076 999

Name: Protopine
Synon: Bis[1,3]benzodioxolo[4,5-c:5',6'-g]azecin-13(5H)-one, 4,6,7,14-tetrahydro-5-methyl-
DB#: MSBNK-IPB_Halle-PB002122
InChIKey: GPTFURBXHJWNHR-UHFFFAOYSA-N
InChI: InChI=1S/C20H19NO5/c1-21-5-4-13-7-18-19(25-10-24-18)8-14(13)16(22)6-12-2-3-17-20(15(12)9-21)26-11-23-17/h2-3,7-8H,4-6,9-11H2,1H3
SMILES: CN1CCC2=CC3=C(C=C2C(=O)CC4=C(C1)C5=C(C=C4)OCO5)OCO3
Precursor_type: [M+H]+
Spectrum_type: MS2
Instrument_type: LC-ESI-QQ
Instrument: TSQ 7000
Ion_mode: POSITIVE
Collision_energy: 35 eV
Formula: C20H19NO5
MW: 353
ExactMass: 353.12632
Comments: Parent=-1
Splash: splash10-000i-0931000000-3ae8ba25a400b3cfc336
Num Peaks: 141
32.000 1
33.000 0
42.000 0
44.000 58
45.000 13
55.000 0
58.000 8
59.000 1
77.000 0
79.000 1
91.000 25
92.000 0
93.000 0
103.000 0
107.000 33
108.000 0
109.000 3
118.000 0
119.000 49
120.000 1
121.000 0
130.000 0
131.000 7
132.000 4
133.000 0
135.000 57
136.000 0
137.000 0
143.000 0
144.000 0
146.000 3
147.000 19
148.000 2
149.000 329
159.000 29
160.000 10
161.000 8
162.000 0
163.000 23
164.000 0
165.000 121
166.000 0
167.000 5
173.000 7
174.000 3
175.000 46
176.000 19
177.000 45
178.000 26
179.000 7
181.000 0
186.000 0
187.000 11
188.000 860
189.000 999
190.000 34
191.000 1
192.000 5
193.000 1
195.000 44
200.000 0
201.000 3
202.000 1
204.000 10
205.000 5
206.000 155
207.000 35
209.000 13
210.000 0
211.000 0
217.000 28
218.000 0
219.000 7
220.000 0
221.000 0
222.000 0
223.000 27
224.000 1
225.000 16
231.000 0
233.000 4
235.000 78
236.000 0
237.000 51
238.000 2
239.000 2
245.000 10
246.000 0
247.000 167
248.000 1
249.000 10
250.000 0
251.000 4
253.000 12
259.000 0
261.000 3
262.000 0
263.000 37
264.000 1
265.000 65
266.000 5
267.000 37
268.000 1
269.000 0
274.000 0
275.000 226
276.000 4
277.000 10
278.000 32
279.000 4
280.000 3
281.000 3
283.000 5
289.000 2
290.000 0
291.000 5
292.000 8
293.000 45
294.000 1
295.000 24
296.000 0
304.000 3
305.000 24
306.000 27
307.000 4
308.000 1
311.000 7
320.000 54
321.000 34
322.000 0
323.000 20
324.000 2
325.000 0
332.000 3
334.000 36
335.000 0
336.000 46
337.000 0
353.000 0
354.000 240
355.000 3

Name: Aminocaproic acid
Synon: 6-aminohexanoic acid
DB#: MSBNK-IPB_Halle-PB000472
InChIKey: SLXKOJJOQWFEFD-UHFFFAOYSA-N
InChI: InChI=1S/C6H13NO2/c7-5-3-1-2-4-6(8)9/h1-5,7H2,(H,8,9)
SMILES: C(CCC(=O)O)CCN
Precursor_type: [M+H]+
Spectrum_type: MS2
Instrument_type: LC-ESI-QTOF
Instrument: API QSTAR Pulsar i
Ion_mode: POSITIVE
Collision_energy: 40 eV
Formula: C6H13NO2
MW: 131
ExactMass: 131.09463
Comments: Parent=-1
Splash: splash10-0ar3-9000000000-37f51bccc6d2db70f2eb
Num Peaks: 28
39.024 267
41.040 972
43.020 43
43.055 49
45.035 76
51.025 18
53.042 76
55.057 999
56.051 19
57.035 13
58.043 9
59.050 12
62.930 7
65.040 15
67.057 118
68.051 54
69.071 408
70.067 18
71.050 17
72.081 8
73.066 167
77.039 330
79.055 225
80.052 17
81.058 24
95.051 62
96.083 14
105.046 16

Name: o-Anisic acid
Synon: 2-methoxybenzoic acid
DB#: MSBNK-IPB_Halle-PB000625
InChIKey: ILUJQPXNXACGAN-UHFFFAOYSA-N
InChI: InChI=1S/C8H8O3/c1-11-7-5-3-2-4-6(7)8(9)10/h2-5H,1H3,(H,9,10)
SMILES: COC1=CC=CC=C1C(=O)O
Precursor_type: [M+H]+
Spectrum_type: MS2
Instrument_type: LC-ESI-QTOF
Instrument: API QSTAR Pulsar i
Ion_mode: POSITIVE
Collision_energy: 40 eV
Formula: C8H8O3
MW: 152
ExactMass: 152.04734
Comments: Parent=-1
Splash: splash10-004l-9000000000-616484432f9d11c3ac1e
Num Peaks: 9
51.024 161
63.024 23
64.032 80
77.039 999
79.058 29
92.027 704
95.053 138
105.044 66
135.045 52

Name: 5-Hydroxytryptophan
Synon: 2-amino-3-(5-hydroxy-1H-indol-3-yl)propanoic acid
DB#: MSBNK-IPB_Halle-PB001404
InChIKey: LDCYZAJDBXYCGN-UHFFFAOYSA-N
InChI: InChI=1S/C11H12N2O3/c12-9(11(15)16)3-6-5-13-10-2-1-7(14)4-8(6)10/h1-2,4-5,9,13-14H,3,12H2,(H,15,16)
SMILES: C1=CC2=C(C=C1O)C(=CN2)CC(C(=O)O)N
Precursor_type: [M+H]+
Spectrum_type: MS2
Instrument_type: LC-ESI-QTOF
Instrument: API QSTAR Pulsar i
Ion_mode: POSITIVE
Collision_energy: 55 eV
Formula: C11H12N2O3
MW: 220
ExactMass: 220.08479
Comments: Parent=-1
Splash: splash10-001i-3900000000-94c7412dbb7cb04c9f32
Num Peaks: 115
38.013 1
39.023 36
41.042 37
42.028 11
43.018 77
43.054 29
44.042 3
45.033 48
51.019 25
52.019 1
53.043 18
54.040 1
55.017 50
55.047 32
55.063 22
55.934 25
56.043 3
57.028 12
57.067 15
58.060 1
59.036 3
60.048 1
61.022 3
63.016 8
64.014 1
65.031 160
66.047 19
67.050 87
68.014 6
69.069 14
71.062 3
71.944 9
72.939 34
74.020 18
76.923 1
77.038 961
78.041 158
79.051 570
80.051 72
81.032 15
82.055 5
83.080 12
87.041 7
88.027 3
89.038 281
90.047 85
91.055 366
92.052 44
93.073 47
94.039 17
95.054 172
96.046 6
102.046 53
103.056 845
104.055 187
105.051 353
106.066 492
107.049 822
108.052 22
109.084 13
110.059 6
111.079 3
113.035 37
114.046 40
114.944 3
115.051 425
116.050 445
117.056 531
118.065 191
119.045 20
119.073 21
120.079 25
121.040 15
121.076 9
127.049 19
128.049 71
129.063 47
129.958 3
130.064 897
130.806 11
131.055 999
132.054 172
133.054 721
133.784 3
134.062 628
134.167 8
135.069 13
140.053 112
141.049 73
142.057 68
143.066 38
144.049 155
144.163 3
145.050 61
145.928 5
146.057 711
147.053 26
148.089 15
150.088 3
151.062 3
152.060 8
153.070 3
155.062 18
156.030 13
157.045 37
158.056 353
159.066 353
160.063 14
161.058 3
162.073 12
175.041 1
176.111 1
178.090 8
190.069 6
191.073 1

Name: Biochanin A O-glucoside malonylated
DB#: MSBNK-IPB_Halle-PN000086
InChI: N/A
SMILES: N/A
Precursor_type: [M+H]+
Spectrum_type: MS2
PrecursorMZ: 533.131
Instrument_type: ESI-TOF
Instrument: micrOTOF-Q
Ion_mode: POSITIVE
Collision_energy: 15 eV
Formula: C25H24O13
MW: 532
ExactMass: 532.1216908279999
Comments: Parent=533.131
Splash: splash10-000i-0090000000-531da520f0f8379fa677
Num Peaks: 10
285.0760 999
286.0793 102
287.0829 13
447.1287 39
448.1301 11
449.1355 4
489.1377 6
515.1185 7
533.1279 80
534.1285 18

Name: Chrysoeriol glucosylglucoside
DB#: MSBNK-IPB_Halle-PN000048
InChI: N/A
SMILES: N/A
Precursor_type: [M-H]-
Spectrum_type: MS2
PrecursorMZ: 623.167
Instrument_type: ESI-TOF
Instrument: micrOTOF-Q
Ion_mode: NEGATIVE
Collision_energy: 25 eV
Formula: C28H32O16
MW: 624
ExactMass: 624.169034944
Comments: Parent=623.167
Splash: splash10-0002-0091002000-cad3faf68d2972e24093
Num Peaks: 7
284.033 41
299.055 999
300.057 116
301.060 27
623.166 157
624.174 45
625.175 30

Name: Rotenone
Synon: (2R,6aS,12aS)-1,2,6,6a,12,12a-hexahydro-2-isopropenyl-8,9-dimethoxychromeno[3,4-b]furo(2,3-h)chromen-6-one
DB#: MSBNK-IPB_Halle-PB005741
InChIKey: JUVIOZPCNVVQFO-HBGVWJBISA-N
InChI: InChI=1S/C23H22O6/c1-11(2)16-8-14-15(28-16)6-5-12-22(24)21-13-7-18(25-3)19(26-4)9-17(13)27-10-20(21)29-23(12)14/h5-7,9,16,20-21H,1,8,10H2,2-4H3/t16-,20-,21+/m1/s1
SMILES: CC(=C)[C@H]1CC2=C(O1)C=CC3=C2O[C@@H]4COC5=CC(=C(C=C5[C@@H]4C3=O)OC)OC
Precursor_type: [M+H]+
Spectrum_type: MS2
Instrument_type: LC-ESI-QTOF
Instrument: micrOTOF-Q
Ion_mode: POSITIVE
Collision_energy: 10 eV
Formula: C23H22O6
MW: 394
ExactMass: 394.14164
Comments: Parent=-1
Splash: splash10-0002-0009000000-358453a180ad1eac44bb
Num Peaks: 19
167.068 1
179.067 0
189.088 0
192.075 6
193.080 0
203.067 4
213.087 20
214.091 1
241.081 12
242.085 0
367.148 13
368.150 2
377.130 0
394.809 0
394.888 0
395.142 999
395.550 0
396.146 189
397.149 7

Name: Harmane
Synon: 1-methyl-9H-pyrido[3,4-b]indole
DB#: MSBNK-IPB_Halle-PB005781
InChIKey: PSFDQSOCUJVVGF-UHFFFAOYSA-N
InChI: InChI=1S/C12H10N2/c1-8-12-10(6-7-13-8)9-4-2-3-5-11(9)14-12/h2-7,14H,1H3
SMILES: CC1=NC=CC2=C1NC3=CC=CC=C23
Precursor_type: [M+H]+
Spectrum_type: MS2
Instrument_type: LC-ESI-QTOF
Instrument: micrOTOF-Q
Ion_mode: POSITIVE
Collision_energy: 15 eV
Formula: C12H10N2
MW: 182
ExactMass: 182.08440
Comments: Parent=-1
Splash: splash10-001i-0900000000-e1101c121f5e3a8ec067
Num Peaks: 14
115.052 6
116.055 0
129.068 0
142.063 9
156.078 1
166.062 0
167.062 1
168.066 12
169.068 0
182.082 8
182.947 0
183.089 999
184.092 92
185.083 0

Name: Berberine
Synon: 9,10-dimethoxy-5,6-dihydro[1,3]dioxolo[4,5-g]isoquino[3,2-a]isoquinolin-7-ium
DB#: MSBNK-IPB_Halle-PB005913
InChIKey: YBHILYKTIRIUTE-UHFFFAOYSA-N
InChI: InChI=1S/C20H18NO4/c1-22-17-4-3-12-7-16-14-9-19-18(24-11-25-19)8-13(14)5-6-21(16)10-15(12)20(17)23-2/h3-4,7-10H,5-6,11H2,1-2H3/q+1
SMILES: COC1=C(C2=C[N+]3=C(C=C2C=C1)C4=CC5=C(C=C4CC3)OCO5)OC
Precursor_type: [M]+
Spectrum_type: MS2
PrecursorMZ: 336.12358
Instrument_type: LC-ESI-QTOF
Instrument: micrOTOF-Q
Ion_mode: POSITIVE
Collision_energy: 10 eV
Formula: [C20H18NO4]+
MW: 336
ExactMass: 336.12358
Comments: Parent=336.12358
Splash: splash10-000i-0009000000-9d8986d4bd9f3b6d634d
Num Peaks: 11
278.078 0
292.092 6
304.093 0
306.071 1
320.087 7
321.094 25
322.098 1
335.863 0
336.118 999
337.121 150
338.125 2

Name: Harmane
Synon: 1-methyl-9H-pyrido[3,4-b]indole
DB#: MSBNK-IPB_Halle-PB005784
InChIKey: PSFDQSOCUJVVGF-UHFFFAOYSA-N
InChI: InChI=1S/C12H10N2/c1-8-12-10(6-7-13-8)9-4-2-3-5-11(9)14-12/h2-7,14H,1H3
SMILES: CC1=NC=CC2=C1NC3=CC=CC=C23
Precursor_type: [M+H]+
Spectrum_type: MS2
Instrument_type: LC-ESI-QTOF
Instrument: micrOTOF-Q
Ion_mode: POSITIVE
Collision_energy: 30 eV
Formula: C12H10N2
MW: 182
ExactMass: 182.08440
Comments: Parent=-1
Splash: splash10-0159-0900000000-0d6bdc509aa56c58b092
Num Peaks: 43
113.038 4
114.045 13
114.981 0
115.053 999
116.055 90
117.057 10
118.058 0
126.045 1
127.052 22
128.059 100
129.066 54
130.068 8
134.057 0
139.051 17
140.048 214
141.055 215
142.062 176
143.068 24
145.062 17
146.062 5
153.056 2
154.063 185
155.069 71
156.078 49
157.082 4
158.056 0
165.051 2
166.060 31
167.062 101
168.066 574
169.069 65
170.055 0
171.058 0
179.065 1
180.062 2
181.074 224
182.081 446
182.171 1
183.089 740
183.407 0
184.093 85
185.069 19
186.069 0

Name: Luteolin O-glucoside malonylated
DB#: MSBNK-IPB_Halle-PN000065
InChI: N/A
SMILES: N/A
Precursor_type: [M+H]+
Spectrum_type: MS2
PrecursorMZ: 535.112
Instrument_type: ESI-TOF
Instrument: micrOTOF-Q
Ion_mode: POSITIVE
Collision_energy: 15 eV
Formula: C24H22O14
MW: 534
ExactMass: 534.1009553839999
Comments: Parent=535.112
Splash: splash10-000i-0090000000-7d6be803aad6f47828d2
Num Peaks: 5
287.0545 999
288.0588 116
289.0599 17
535.1096 61
536.1120 18

Name: Quercetin
Synon: 2-(3,4-dihydroxyphenyl)-3,5,7-trihydroxychromen-4-one
DB#: MSBNK-IPB_Halle-PB004085
InChIKey: REFJWTPEDVJJIY-UHFFFAOYSA-N
InChI: InChI=1S/C15H10O7/c16-7-4-10(19)12-11(5-7)22-15(14(21)13(12)20)6-1-2-8(17)9(18)3-6/h1-5,16-19,21H
SMILES: C1=CC(=C(C=C1C2=C(C(=O)C3=C(C=C(C=C3O2)O)O)O)O)O
Precursor_type: [M+H]+
Spectrum_type: MS2
Instrument_type: LC-ESI-QQ
Instrument: TSQ QUANTUM AM
Ion_mode: POSITIVE
Collision_energy: 35 eV
Formula: C15H10O7
MW: 302
ExactMass: 302.04265
Comments: Parent=-1
Splash: splash10-0ug0-0940000000-eab382a0773efbd9b2fe
Num Peaks: 153
39.000 0
43.000 0
53.000 1
55.000 8
57.000 0
65.000 34
66.000 0
67.000 30
69.000 160
71.000 3
77.000 14
79.000 11
81.000 58
83.000 8
84.000 0
86.000 0
87.000 0
89.000 2
91.000 22
92.000 2
93.000 29
94.000 7
95.000 48
97.000 14
99.000 17
100.000 0
101.000 16
103.000 17
104.000 3
105.000 31
107.000 33
108.000 1
109.000 182
110.000 4
111.000 94
113.000 5
115.000 73
117.000 72
119.000 13
121.000 165
122.000 1
123.000 66
124.000 9
125.000 1
126.000 2
127.000 140
128.000 18
129.000 15
131.000 79
132.000 3
133.000 33
134.000 0
135.000 56
136.000 4
137.000 670
139.000 27
141.000 6
142.000 4
143.000 21
144.000 2
145.000 145
146.000 1
147.000 21
149.000 45
150.000 8
151.000 7
152.000 0
153.000 999
155.000 276
157.000 36
158.000 2
159.000 43
160.000 14
161.000 117
162.000 0
163.000 114
165.000 280
166.000 27
167.000 5
168.000 1
169.000 3
171.000 8
172.000 0
173.000 257
174.000 3
175.000 10
176.000 1
177.000 50
178.000 2
179.000 78
183.000 240
184.000 24
185.000 2
187.000 188
188.000 3
189.000 12
190.000 6
191.000 48
192.000 1
193.000 7
194.000 1
195.000 22
197.000 0
198.000 0
200.000 19
201.000 486
202.000 9
203.000 11
204.000 5
205.000 22
207.000 18
211.000 77
212.000 4
213.000 16
215.000 24
216.000 2
217.000 31
218.000 2
219.000 44
221.000 18
223.000 1
224.000 0
227.000 2
228.000 114
229.000 930
230.000 3
231.000 7
232.000 25
233.000 4
235.000 0
238.000 1
239.000 60
240.000 0
241.000 2
243.000 8
245.000 48
246.000 8
247.000 33
255.000 5
256.000 12
257.000 231
258.000 9
261.000 3
267.000 2
268.000 0
269.000 6
273.000 4
274.000 65
283.000 0
285.000 94
286.000 14
301.000 3
303.000 137

Name: 2,15-dioxapentacyclo[22.2.2.13,7.110,14.016,21]triaconta-1(26),3(30),4,6,10(29),11,13,16(21),17,19,24,27-dodecaene-4,5,8,17-tetrol 1
Synon: NJNMMLUSUMUVMX-UHFFFAOYSA-N
Synon: 2,15-dioxapentacyclo[22.2.2.13,7.110,14.016,21]triaconta-1(26),3(30),4,6,10(29),11,13,16(21),17,19,24,27-dodecaene-4,5,8,17-tetrol
DB#: MSBNK-IPB_Halle-PB010601
InChIKey: NJNMMLUSUMUVMX-UHFFFAOYSA-N
InChI: InChI=1S/C28H24O6/c29-23-6-2-4-19-10-7-17-8-11-21(12-9-17)33-26-16-20(15-25(31)27(26)32)24(30)14-18-3-1-5-22(13-18)34-28(19)23/h1-6,8-9,11-13,15-16,24,29-32H,7,10,14H2
SMILES: C1CC2=C(C(=CC=C2)O)OC3=CC=CC(=C3)CC(C4=CC(=C(C(=C4)O)O)OC5=CC=C1C=C5)O
Precursor_type: [M+H]+
Spectrum_type: MS2
PrecursorMZ: 457.1646
Instrument_type: LC-ESI-QTOF
Instrument: Bruker MicrOTOF-Q
Ion_mode: POSITIVE
Collision_energy: 31.787345
Formula: C28H24O6
MW: 456
ExactMass: 456.157
Comments: Parent=457.1646
Splash: splash10-056u-0191000000-9aad89c64bd67a80525b
Num Peaks: 230
107.05 2
115.05 4
117.07 6
119.05 7
120.05 2
121.06 25
122.07 3
123.04 40
124.04 4
125.02 6
128.06 2
129.07 5
131.05 7
133.06 16
134.03 1
134.06 1
135.04 41
136.05 34
137.06 76
138.06 6
139.04 7
141.07 5
142.07 1
143.05 1
143.08 1
144.06 1
145.06 8
146.07 1
147.04 6
148.05 2
149.06 24
150.06 3
151.04 10
152.06 5
153.07 11
154.07 3
155.08 11
156.09 2
157.07 4
158.07 1
159.08 4
160.06 1
161.06 10
162.07 5
163.04 4
164.05 1
165.07 40
166.08 16
167.08 17
168.06 23
169.06 42
170.07 6
171.08 9
172.08 2
173.06 4
177.06 6
178.08 5
179.08 19
180.09 5
181.07 70
182.07 22
183.08 249
184.08 34
185.09 9
186.07 2
187.07 17
188.08 3
189.07 2
190.07 1
191.08 17
192.09 6
193.07 21
194.07 27
195.08 77
196.05 125
197.06 121
198.07 27
199.08 73
200.08 18
201.09 27
202.09 3
203.07 3
203.18 1
205.07 3
206.07 2
207.08 21
208.09 21
209.08 87
210.07 71
211.07 443
212.08 172
213.06 297
213.09 11
214.06 55
214.07 2
215.07 636
216.07 85
217.08 14
218.08 3
219.08 15
220.09 13
221.09 7
222.07 22
223.07 115
224.08 47
225.09 106
226.07 175
227.07 526
228.08 269
229.09 999
230.09 149
231.09 17
232.09 2
235.08 8
236.08 4
237.09 103
238.1 44
239.07 93
240.08 631
241.09 962
242.09 191
243.1 72
244.09 11
245.09 3
251.07 2
252.08 2
253.09 18
254.09 17
255.1 977
255.97 1
256.1 175
257.1 23
258.1 4
259.1 1
260.09 1
261.09 1
261.12 1
262.09 1
263.08 1
264.07 1
265.09 3
266.09 1
267.1 2
269.09 3
270.09 3
271.11 9
272.1 1
272.11 1
273.09 1
273.11 2
274.1 2
275.1 4
276.09 2
277.09 3
278.09 1
279.1 3
281.09 6
282.1 2
283.11 5
284.09 3
285.1 5
286.1 4
287.1 7
288.11 3
289.12 9
290.12 2
291.1 3
293.11 3
295.1 2
297.1 2
298.1 3
299.11 45
300.11 12
301.12 14
302.11 5
303.1 14
304.11 6
305.11 9
306.12 3
307.12 5
309.09 2
311.11 5
313.11 6
314.12 10
315.1 14
316.11 6
317.12 59
318.12 22
319.1 2
319.13 21
320.12 5
321.11 7
322.12 2
323.12 2
327.1 10
328.11 5
329.12 12
330.1 7
331.1 26
332.14 38
333.11 71
334.12 20
335.13 195
336.13 49
337.13 8
345.11 28
346.12 30
347.12 25
348.13 9
349.11 112
350.11 28
351.12 34
352.12 8
362.11 2
363.12 61
364.13 87
365.13 21
366.13 4
393.15 2
411.16 8
412.16 2
421.14 5
427.15 2
439.15 38
440.16 11
441.16 2
455.15 7
456.15 3
457.16 40
459.17 2

Name: Cinchonine
Synon: (S)-(5-ethenyl-1-azabicyclo[2.2.2]octan-7-yl)-quinolin-4-ylmethanol
DB#: MSBNK-IPB_Halle-PB005842
InChIKey: KMPWYEUPVWOPIM-QAMTZSDWSA-N
InChI: InChI=1S/C19H22N2O/c1-2-13-12-21-10-8-14(13)11-18(21)19(22)16-7-9-20-17-6-4-3-5-15(16)17/h2-7,9,13-14,18-19,22H,1,8,10-12H2/t13-,14-,18+,19-/m0/s1
SMILES: C=C[C@H]1CN2CC[C@H]1C[C@@H]2[C@H](C3=CC=NC4=CC=CC=C34)O
Precursor_type: [M+H]+
Spectrum_type: MS2
Instrument_type: LC-ESI-QTOF
Instrument: micrOTOF-Q
Ion_mode: POSITIVE
Collision_energy: 15 eV
Formula: C19H22N2O
MW: 294
ExactMass: 294.17321
Comments: Parent=-1
Splash: splash10-0002-0090000000-b37e53ebc4c98fbfdc7e
Num Peaks: 24
130.063 2
156.079 0
166.120 1
168.079 0
206.095 0
222.118 0
223.120 2
234.124 4
235.123 2
236.132 1
246.123 0
248.139 2
249.136 0
252.136 1
266.154 0
267.180 0
277.166 86
278.169 11
294.915 0
294.991 0
295.176 999
295.485 0
296.179 142
297.182 0

Name: Naringin
Synon: (2S)-7-[(2S,3R,4S,5S,6R)-4,5-dihydroxy-6-(hydroxymethyl)-3-[(2S,3R,4R,5R,6S)-3,4,5-trihydroxy-6-methyloxan-2-yl]oxyoxan-2-yl]oxy-5-hydroxy-2-(4-hydroxyphenyl)-2,3-dihydrochromen-4-one
DB#: MSBNK-IPB_Halle-PB005726
InChIKey: DFPMSGMNTNDNHN-ZPHOTFPESA-N
InChI: InChI=1S/C27H32O14/c1-10-20(32)22(34)24(36)26(37-10)41-25-23(35)21(33)18(9-28)40-27(25)38-13-6-14(30)19-15(31)8-16(39-17(19)7-13)11-2-4-12(29)5-3-11/h2-7,10,16,18,20-30,32-36H,8-9H2,1H3/t10-,16-,18+,20-,21+,22+,23-,24+,25+,26-,27+/m0/s1
SMILES: C[C@H]1[C@@H]([C@H]([C@H]([C@@H](O1)O[C@@H]2[C@H]([C@@H]([C@H](O[C@H]2OC3=CC(=C4C(=O)C[C@H](OC4=C3)C5=CC=C(C=C5)O)O)CO)O)O)O)O)O
Precursor_type: [M+H]+
Spectrum_type: MS2
Instrument_type: LC-ESI-QTOF
Instrument: micrOTOF-Q
Ion_mode: POSITIVE
Collision_energy: 30 eV
Formula: C27H32O14
MW: 580
ExactMass: 580.17921
Comments: Parent=-1
Splash: splash10-00di-0390000000-4c18bc62d63c489b84cc
Num Peaks: 56
119.047 0
121.063 0
129.053 0
147.042 45
148.046 2
151.038 0
153.016 288
154.020 16
165.016 2
171.026 32
172.031 1
177.016 0
179.031 8
189.050 0
191.031 0
195.026 27
196.027 0
203.030 0
219.025 23
220.028 1
231.054 8
233.043 0
237.036 0
243.025 1
245.041 11
246.046 0
249.036 2
255.062 2
261.035 10
262.040 0
263.050 18
264.055 1
271.053 0
272.059 0
273.071 999
274.075 128
275.078 3
279.046 3
281.061 1
285.071 13
286.075 1
297.069 11
298.073 0
315.081 6
316.084 0
323.084 0
339.082 12
340.085 1
351.079 4
352.085 0
363.079 0
365.097 2
369.091 0
381.092 1
383.108 0
399.104 0

Name: Erythromycin
Synon: (2R,3R,4S,5R,8R,9S,10S,11R,12R,14R)-11-[(2S,3R,4S,6R)-4-(dimethylamino)-3-hydroxy-6-methyloxan-2-yl]oxy-5-ethyl-3,4,12-trihydroxy-9-[(2R,4R,5S,6S)-5-hydroxy-4-methoxy-4,6-dimethyloxan-2-yl]oxy-2,4,8,10,12,14-hexamethyl-6-oxacyclotetradecane-1,7-dione
DB#: MSBNK-IPB_Halle-PB005802
InChIKey: ULGZDMOVFRHVEP-RWJQBGPGSA-N
InChI: InChI=1S/C37H67NO13/c1-14-25-37(10,45)30(41)20(4)27(39)18(2)16-35(8,44)32(51-34-28(40)24(38(11)12)15-19(3)47-34)21(5)29(22(6)33(43)49-25)50-26-17-36(9,46-13)31(42)23(7)48-26/h18-26,28-32,34,40-42,44-45H,14-17H2,1-13H3/t18-,19-,20+,21+,22-,23+,24+,25-,26+,28-,29+,30-,31+,32-,34+,35-,36-,37-/m1/s1
SMILES: CC[C@@H]1[C@@]([C@@H]([C@H](C(=O)[C@@H](C[C@@]([C@@H]([C@H]([C@@H]([C@H](C(=O)O1)C)O[C@H]2C[C@@]([C@H]([C@@H](O2)C)O)(C)OC)C)O[C@H]3[C@@H]([C@H](C[C@H](O3)C)N(C)C)O)(C)O)C)C)O)(C)O
Precursor_type: [M+H]+
Spectrum_type: MS2
Instrument_type: LC-ESI-QTOF
Instrument: micrOTOF-Q
Ion_mode: POSITIVE
Collision_energy: 15 eV
Formula: C37H67NO13
MW: 733
ExactMass: 733.46124
Comments: Parent=-1
Splash: splash10-004i-0000090400-0c8362975e5b8d5441bb
Num Peaks: 47
116.105 0
127.074 0
158.117 134
159.119 8
176.126 0
284.183 0
316.209 57
317.211 8
325.198 1
342.224 0
347.218 0
365.229 4
383.239 7
384.242 0
401.250 0
408.270 1
464.298 0
482.307 2
500.317 3
501.318 0
522.337 100
523.341 27
524.344 3
540.348 77
541.351 20
542.356 2
558.359 222
559.362 61
560.365 8
574.353 0
575.921 0
576.370 999
576.920 0
577.373 271
578.375 36
579.379 0
698.441 20
699.445 7
700.448 0
702.436 1
716.451 57
717.455 21
718.456 3
734.462 572
735.465 209
736.468 37
737.471 1

Name: Biochanin A glucosylglucoside malonylated
DB#: MSBNK-IPB_Halle-PN000092
InChI: N/A
SMILES: N/A
Precursor_type: [M+H]+
Spectrum_type: MS2
PrecursorMZ: 695.474
Instrument_type: ESI-TOF
Instrument: micrOTOF-Q
Ion_mode: POSITIVE
Collision_energy: 15 eV
Formula: C31H34O18
MW: 694
ExactMass: 694.1745142479999
Comments: Parent=695.474
Splash: splash10-000i-0090001000-15be4caed743381697cf
Num Peaks: 10
231.0501 6
285.0756 999
286.0804 123
287.0790 13
447.1352 46
448.1346 10
609.1935 11
695.1830 161
696.1841 43
697.1956 10

Name: Genistein
Synon: 5,7-dihydroxy-3-(4-hydroxyphenyl)chromen-4-one
DB#: MSBNK-IPB_Halle-PB000885
InChIKey: TZBJGXHYKVUXJN-UHFFFAOYSA-N
InChI: InChI=1S/C15H10O5/c16-9-3-1-8(2-4-9)11-7-20-13-6-10(17)5-12(18)14(13)15(11)19/h1-7,16-18H
SMILES: C1=CC(=CC=C1C2=COC3=CC(=CC(=C3C2=O)O)O)O
Precursor_type: [M+H]+
Spectrum_type: MS2
Instrument_type: LC-ESI-QTOF
Instrument: API QSTAR Pulsar i
Ion_mode: POSITIVE
Collision_energy: 55 eV
Formula: C15H10O5
MW: 270
ExactMass: 270.05282
Comments: Parent=-1
Splash: splash10-014l-4900000000-5490c0b819842ba4a872
Num Peaks: 72
53.040 10
55.018 36
63.023 10
65.038 327
67.017 116
68.996 225
77.038 29
79.055 13
81.035 31
83.014 12
89.039 45
91.055 999
92.059 15
93.034 12
95.014 23
97.030 32
103.056 61
105.037 27
106.042 9
107.049 134
108.022 15
109.029 16
111.009 22
115.054 541
116.060 45
117.069 53
118.041 25
119.050 154
121.028 191
125.024 10
127.053 68
128.061 79
129.068 36
131.049 119
135.044 50
137.024 22
139.055 38
140.063 17
141.071 381
142.075 12
144.057 71
145.062 83
147.044 41
149.024 61
150.036 43
151.055 42
152.062 69
153.019 623
154.025 10
155.054 127
157.067 23
159.052 41
163.045 33
165.023 14
168.062 90
169.070 181
170.075 10
171.050 23
172.057 14
173.065 16
179.060 26
181.072 10
183.051 20
185.068 16
187.067 25
191.042 9
197.066 131
200.053 39
201.060 8
213.062 36
215.077 30
253.058 14

Name: Methoxyindoleacetic acid
Synon: 2-(5-methoxy-1H-indol-3-yl)acetic acid
DB#: MSBNK-IPB_Halle-PB000518
InChIKey: COCNDHOPIHDTHK-UHFFFAOYSA-N
InChI: InChI=1S/C11H11NO3/c1-15-8-2-3-10-9(5-8)7(6-12-10)4-11(13)14/h2-3,5-6,12H,4H2,1H3,(H,13,14)
SMILES: COC1=CC2=C(C=C1)NC=C2CC(=O)O
Precursor_type: [M+H]+
Spectrum_type: MS2
Instrument_type: LC-ESI-QTOF
Instrument: API QSTAR Pulsar i
Ion_mode: POSITIVE
Collision_energy: 10 eV
Formula: C11H11NO3
MW: 205
ExactMass: 205.07389
Comments: Parent=-1
Splash: splash10-0a4i-0190000000-30a337d0188ca2b01e98
Num Peaks: 3
160.075 133
206.079 999
207.084 18

Name: Naringenin
Synon: 5,7-Dihydroxy-2-(4-hydroxyphenyl)chroman-4-one
Synon: Salipurol
DB#: MSBNK-IPB_Halle-PN000004
InChIKey: FTVWIRXFELQLPI-ZDUSSCGKSA-N
InChI: InChI=1S/C15H12O5/c16-9-3-1-8(2-4-9)13-7-12(19)15-11(18)5-10(17)6-14(15)20-13/h1-6,13,16-18H,7H2/t13-/m0/s1
SMILES: C1[C@H](OC2=CC(=CC(=C2C1=O)O)O)C3=CC=C(C=C3)O
Precursor_type: [M-H]-
Spectrum_type: MS2
PrecursorMZ: 271.059
Instrument_type: ESI-TOF
Instrument: micrOTOF-Q
Ion_mode: NEGATIVE
Collision_energy: 25 eV
Formula: C15H12O5
MW: 272
ExactMass: 272.068473484
Comments: Parent=271.059
Splash: splash10-014i-0900000000-d8b01f761701c128b7bf
Num Peaks: 12
83.011 15
93.031 53
107.012 95
108.019 21
117.032 35
119.048 999
120.052 55
143.048 20
145.028 35
151.002 45
161.060 22
187.039 43

Name: Berberine
Synon: 9,10-dimethoxy-5,6-dihydro[1,3]dioxolo[4,5-g]isoquino[3,2-a]isoquinolin-7-ium
DB#: MSBNK-IPB_Halle-PB005914
InChIKey: YBHILYKTIRIUTE-UHFFFAOYSA-N
InChI: InChI=1S/C20H18NO4/c1-22-17-4-3-12-7-16-14-9-19-18(24-11-25-19)8-13(14)5-6-21(16)10-15(12)20(17)23-2/h3-4,7-10H,5-6,11H2,1-2H3/q+1
SMILES: COC1=C(C2=C[N+]3=C(C=C2C=C1)C4=CC5=C(C=C4CC3)OCO5)OC
Precursor_type: [M]+
Spectrum_type: MS2
PrecursorMZ: 336.12358
Instrument_type: LC-ESI-QTOF
Instrument: micrOTOF-Q
Ion_mode: POSITIVE
Collision_energy: 15 eV
Formula: [C20H18NO4]+
MW: 336
ExactMass: 336.12358
Comments: Parent=336.12358
Splash: splash10-000i-0009000000-4459c8c8f7b607ad7b49
Num Peaks: 17
275.092 0
278.077 2
291.086 0
292.093 39
293.096 4
304.093 7
305.099 1
306.072 15
307.076 1
318.070 0
320.088 43
321.096 167
322.099 24
335.848 0
336.119 999
337.123 160
338.124 3

Name: Keampferol
Synon: Robigenin
Synon: 3,5,7-Trihydroxy-2-(4-hydroxyphenyl)-4H-1-benzopyran-4-one
DB#: MSBNK-IPB_Halle-PN000002
InChIKey: IYRMWMYZSQPJKC-UHFFFAOYSA-N
InChI: InChI=1S/C15H10O6/c16-8-3-1-7(2-4-8)15-14(20)13(19)12-10(18)5-9(17)6-11(12)21-15/h1-6,16-18,20H
SMILES: OC=1C=CC(=CC=1)C=2OC3=CC(O)=CC(O)=C3(C(=O)C=2(O))
Precursor_type: [M+H]+
Spectrum_type: MS2
PrecursorMZ: 287.052
Instrument_type: ESI-TOF
Instrument: micrOTOF-Q
Ion_mode: POSITIVE
Collision_energy: 15 eV
Formula: C15H10O6
MW: 286
ExactMass: 286.04773804
Comments: Parent=287.052
Splash: splash10-0udi-0910000000-63aed82d6564c67bfad9
Num Peaks: 37
91.053 29
93.033 46
97.028 19
103.052 26
105.034 70
107.049 89
109.027 47
111.011 36
115.055 72
119.046 41
121.028 377
122.029 29
127.050 26
128.060 84
129.070 50
131.048 39
133.030 29
135.048 25
136.016 19
137.022 112
139.051 41
145.062 69
147.042 98
153.017 999
154.021 74
157.063 167
161.055 33
165.018 85
171.042 50
185.060 51
213.054 129
214.057 25
217.051 19
229.047 61
241.046 19
258.048 37
287.049 48

Name: 1H-indole-3-carboxylic acid
DB#: MSBNK-IPB_Halle-PB000615
InChIKey: KMAKOBLIOCQGJP-UHFFFAOYSA-N
InChI: InChI=1S/C9H7NO2/c11-9(12)7-5-10-8-4-2-1-3-6(7)8/h1-5,10H,(H,11,12)
SMILES: C1=CC=C2C(=C1)C(=CN2)C(=O)O
Precursor_type: [M+H]+
Spectrum_type: MS2
Instrument_type: LC-ESI-QTOF
Instrument: API QSTAR Pulsar i
Ion_mode: POSITIVE
Collision_energy: 15 eV
Formula: C9H7NO2
MW: 161
ExactMass: 161.04768
Comments: Parent=-1
Splash: splash10-02t9-0900000000-6053c6788a142676471b
Num Peaks: 4
116.053 25
118.068 999
144.045 457
162.060 945

Name: 4-Coumaroylcholine
Synon: 2-[(E)-3-(4-hydroxyphenyl)prop-2-enoyl]oxyethyl-trimethylazanium
DB#: MSBNK-IPB_Halle-PB000353
InChIKey: WRLCNNSWESNISL-UHFFFAOYSA-O
InChI: InChI=1S/C14H19NO3/c1-15(2,3)10-11-18-14(17)9-6-12-4-7-13(16)8-5-12/h4-9H,10-11H2,1-3H3/p+1
SMILES: C[N+](C)(C)CCOC(=O)C=CC1=CC=C(C=C1)O
Precursor_type: [M]+
Spectrum_type: MS2
Instrument_type: LC-ESI-QTOF
Instrument: API QSTAR Pulsar i
Ion_mode: POSITIVE
Collision_energy: 25 eV
Formula: [C14H20NO3]+
MW: 250
ExactMass: 250.14432
Comments: Parent=-1
Splash: splash10-0006-0900000000-867178d2511b0c7a2c5d
Num Peaks: 3
119.053 23
147.045 211
191.071 999

Name: Glycine-Betaine
Synon: 2-trimethylazaniumylacetate
DB#: MSBNK-IPB_Halle-PB001708
InChIKey: KWIUHFFTVRNATP-UHFFFAOYSA-N
InChI: InChI=1S/C5H11NO2/c1-6(2,3)4-5(7)8/h4H2,1-3H3
SMILES: C[N+](C)(C)CC(=O)[O-]
Precursor_type: [M]+
Spectrum_type: MS2
Instrument_type: LC-ESI-QQ
Instrument: TSQ 7000
Ion_mode: POSITIVE
Collision_energy: 20 eV
Formula: C5H11NO2
MW: 117
ExactMass: 117.07898
Comments: Parent=-1
Splash: splash10-066r-5900000000-a6291f86046f32ad3c81
Num Peaks: 5
58.000 137
59.000 518
103.000 0
117.000 1
118.000 999

Name: Ononin
Synon: 3-(4-methoxyphenyl)-7-[(2S,3R,4S,5S,6R)-3,4,5-trihydroxy-6-(hydroxymethyl)oxan-2-yl]oxychromen-4-one
DB#: MSBNK-IPB_Halle-PB000781
InChIKey: MGJLSBDCWOSMHL-MIUGBVLSSA-N
InChI: InChI=1S/C22H22O9/c1-28-12-4-2-11(3-5-12)15-10-29-16-8-13(6-7-14(16)18(15)24)30-22-21(27)20(26)19(25)17(9-23)31-22/h2-8,10,17,19-23,25-27H,9H2,1H3/t17-,19-,20+,21-,22-/m1/s1
SMILES: COC1=CC=C(C=C1)C2=COC3=C(C2=O)C=CC(=C3)O[C@H]4[C@@H]([C@H]([C@@H]([C@H](O4)CO)O)O)O
Precursor_type: [M+H]+
Spectrum_type: MS2
Instrument_type: LC-ESI-QTOF
Instrument: API QSTAR Pulsar i
Ion_mode: POSITIVE
Collision_energy: 40 eV
Formula: C22H22O9
MW: 430
ExactMass: 430.12638
Comments: Parent=-1
Splash: splash10-014i-0090000000-496bc7f7d879774e97c3
Num Peaks: 6
213.094 25
226.062 10
237.055 27
253.052 18
254.059 40
269.081 999

Name: 3,4,5-Trimethoxycinnamic acid
Synon: (E)-3-(3,4,5-trimethoxyphenyl)prop-2-enoic acid
DB#: MSBNK-IPB_Halle-PB005821
InChIKey: YTFVRYKNXDADBI-SNAWJCMRSA-N
InChI: InChI=1S/C12H14O5/c1-15-9-6-8(4-5-11(13)14)7-10(16-2)12(9)17-3/h4-7H,1-3H3,(H,13,14)/b5-4+
SMILES: COC1=CC(=CC(=C1OC)OC)/C=C/C(=O)O
Precursor_type: [M+H]+
Spectrum_type: MS2
Instrument_type: LC-ESI-QTOF
Instrument: micrOTOF-Q
Ion_mode: POSITIVE
Collision_energy: 10 eV
Formula: C12H14O5
MW: 238
ExactMass: 238.08412
Comments: Parent=-1
Splash: splash10-00di-0190000000-a53a43c16d61d22ba5fd
Num Peaks: 37
147.042 1
148.050 0
149.057 0
161.057 0
162.065 5
163.070 4
164.077 0
165.087 0
167.068 1
169.083 5
175.037 0
176.044 0
177.052 2
178.060 5
179.067 3
180.075 1
189.052 4
190.060 52
191.035 21
192.038 2
193.083 41
194.087 2
195.099 4
197.078 12
198.082 0
205.047 1
206.054 57
207.060 9
208.070 30
209.075 4
220.907 0
221.078 999
222.081 91
223.080 3
224.064 5
239.088 115
240.091 10

Name: 5-methoxyindole-3-carbaldehyde
DB#: MSBNK-IPB_Halle-PB000501
InChIKey: TUWARWGEOHQXCO-UHFFFAOYSA-N
InChI: InChI=1S/C10H9NO2/c1-13-8-2-3-10-9(4-8)7(6-12)5-11-10/h2-6,11H,1H3
SMILES: COC1=CC2=C(C=C1)NC=C2C=O
Precursor_type: [M+H]+
Spectrum_type: MS2
Instrument_type: LC-ESI-QTOF
Instrument: API QSTAR Pulsar i
Ion_mode: POSITIVE
Collision_energy: 20 eV
Formula: C10H9NO2
MW: 175
ExactMass: 175.06333
Comments: Parent=-1
Splash: splash10-0002-0900000000-49d68fcd16bd0cadd4ac
Num Peaks: 14
105.058 2
116.050 14
117.058 50
118.065 6
121.064 3
133.051 291
134.058 7
144.044 20
147.067 6
148.075 999
149.077 8
161.048 3
176.070 313
177.077 2

Name: Phlorizin
Synon: 1-[2,4-dihydroxy-6-[(2S,3R,4S,5S,6R)-3,4,5-trihydroxy-6-(hydroxymethyl)oxan-2-yl]oxyphenyl]-3-(4-hydroxyphenyl)propan-1-one
DB#: MSBNK-IPB_Halle-PB006208
InChIKey: IOUVKUPGCMBWBT-QNDFHXLGSA-N
InChI: InChI=1S/C21H24O10/c22-9-16-18(27)19(28)20(29)21(31-16)30-15-8-12(24)7-14(26)17(15)13(25)6-3-10-1-4-11(23)5-2-10/h1-2,4-5,7-8,16,18-24,26-29H,3,6,9H2/t16-,18-,19+,20-,21-/m1/s1
SMILES: C1=CC(=CC=C1CCC(=O)C2=C(C=C(C=C2O[C@H]3[C@@H]([C@H]([C@@H]([C@H](O3)CO)O)O)O)O)O)O
Precursor_type: [M+H]+
Spectrum_type: MS2
Instrument_type: LC-ESI-QTOF
Instrument: micrOTOF-Q
Ion_mode: POSITIVE
Collision_energy: 15 eV
Formula: C21H24O10
MW: 436
ExactMass: 436.13695
Comments: Parent=-1
Splash: splash10-004i-0192000000-569b92df53d5414d6b9c
Num Peaks: 84
107.047 10
127.039 8
131.044 0
139.036 0
145.048 1
149.059 21
150.060 0
151.038 5
169.048 130
170.051 7
173.059 10
174.062 0
181.045 1
187.081 0
191.066 7
192.068 0
193.050 3
205.043 0
207.060 1
211.058 14
212.062 1
213.046 0
215.066 20
216.070 1
217.046 1
233.078 6
234.080 0
235.056 31
236.062 3
239.067 2
245.038 1
247.057 1
257.082 14
258.082 1
259.058 7
265.066 0
269.091 0
274.857 0
275.088 999
275.366 0
275.516 0
276.090 126
277.070 15
278.066 1
281.075 3
287.087 47
288.094 5
293.095 0
295.077 6
296.082 1
299.087 51
300.091 7
301.091 0
311.088 3
313.102 0
315.081 0
317.097 123
318.100 20
319.113 0
323.086 2
324.087 0
335.088 0
339.082 0
341.097 97
342.099 17
347.097 0
353.098 72
354.099 12
355.118 2
365.097 23
366.099 4
371.109 6
372.133 0
383.107 34
384.112 6
390.220 0
401.117 14
402.128 1
409.227 0
419.132 8
420.131 0
436.233 20
437.160 0
437.237 5

Name: 3,4,5-Trimethoxycinnamic acid
Synon: (E)-3-(3,4,5-trimethoxyphenyl)prop-2-enoic acid
DB#: MSBNK-IPB_Halle-PB005822
InChIKey: YTFVRYKNXDADBI-SNAWJCMRSA-N
InChI: InChI=1S/C12H14O5/c1-15-9-6-8(4-5-11(13)14)7-10(16-2)12(9)17-3/h4-7H,1-3H3,(H,13,14)/b5-4+
SMILES: COC1=CC(=CC(=C1OC)OC)/C=C/C(=O)O
Precursor_type: [M+H]+
Spectrum_type: MS2
Instrument_type: LC-ESI-QTOF
Instrument: micrOTOF-Q
Ion_mode: POSITIVE
Collision_energy: 15 eV
Formula: C12H14O5
MW: 238
ExactMass: 238.08412
Comments: Parent=-1
Splash: splash10-00dl-0970000000-e99d426adbbcf08b402b
Num Peaks: 75
118.039 1
119.047 2
121.064 2
123.042 0
130.040 6
131.047 6
132.055 5
133.062 11
134.069 2
135.042 15
136.048 3
137.058 1
138.066 8
139.073 3
144.055 1
145.029 1
146.036 3
147.042 56
148.049 22
149.058 24
150.065 15
151.073 5
154.060 12
155.065 0
158.035 1
159.042 3
160.050 15
161.058 25
162.066 110
163.040 95
164.047 10
164.073 3
165.058 6
165.083 6
166.061 0
167.068 23
168.071 1
169.084 42
170.088 2
172.048 0
173.022 0
174.029 14
175.037 50
176.045 43
177.053 61
178.060 142
179.067 30
180.075 15
181.076 0
182.056 0
188.045 8
189.052 34
190.060 469
191.034 293
192.038 34
193.084 297
194.087 29
195.098 9
196.101 0
197.079 24
198.082 1
205.047 17
206.055 399
207.060 47
208.071 146
209.074 21
210.077 0
220.929 0
221.078 999
222.082 102
223.076 4
224.065 24
225.068 1
239.088 44
240.092 3

Name: Genistein 7-O-glucosylglucoside malonylated
DB#: MSBNK-IPB_Halle-PN000039
InChI: N/A
SMILES: N/A
Precursor_type: [M+H]+
Spectrum_type: MS2
PrecursorMZ: 681.17
Instrument_type: ESI-TOF
Instrument: micrOTOF-Q
Ion_mode: POSITIVE
Collision_energy: 15 eV
Formula: C30H32O18
MW: 680
ExactMass: 680.158864184
Comments: Parent=681.17
Splash: splash10-00di-0090000000-8c9b984e761ef8265536
Num Peaks: 1
271.0599 999

Name: Cystine
Synon: 2-amino-3-(2-amino-3-hydroxy-3-oxopropyl)disulfanylpropanoic acid
DB#: MSBNK-IPB_Halle-PB000444
InChIKey: LEVWYRKDKASIDU-UHFFFAOYSA-N
InChI: InChI=1S/C6H12N2O4S2/c7-3(5(9)10)1-13-14-2-4(8)6(11)12/h3-4H,1-2,7-8H2,(H,9,10)(H,11,12)
SMILES: C(C(C(=O)O)N)SSCC(C(=O)O)N
Precursor_type: [M+H]+
Spectrum_type: MS2
Instrument_type: LC-ESI-QTOF
Instrument: API QSTAR Pulsar i
Ion_mode: POSITIVE
Collision_energy: 10 eV
Formula: C6H12N2O4S2
MW: 240
ExactMass: 240.02385
Comments: Parent=-1
Splash: splash10-0006-0090000000-af3f7f01ab3650406cbd
Num Peaks: 5
151.984 22
154.000 4
195.024 8
241.031 999
242.033 8

Name: Chlorogenic Acid
Synon: (1S,3R,4R,5R)-3-[(E)-3-(3,4-dihydroxyphenyl)prop-2-enoyl]oxy-1,4,5-trihydroxycyclohexane-1-carboxylic acid
DB#: MSBNK-IPB_Halle-PB006182
InChIKey: CWVRJTMFETXNAD-JUHZACGLSA-N
InChI: InChI=1S/C16H18O9/c17-9-3-1-8(5-10(9)18)2-4-13(20)25-12-7-16(24,15(22)23)6-11(19)14(12)21/h1-5,11-12,14,17-19,21,24H,6-7H2,(H,22,23)/b4-2+/t11-,12-,14-,16+/m1/s1
SMILES: C1[C@H]([C@H]([C@@H](C[C@@]1(C(=O)O)O)OC(=O)/C=C/C2=CC(=C(C=C2)O)O)O)O
Precursor_type: [M+H]+
Spectrum_type: MS2
Instrument_type: LC-ESI-QTOF
Instrument: micrOTOF-Q
Ion_mode: POSITIVE
Collision_energy: 20 eV
Formula: C16H18O9
MW: 354
ExactMass: 354.09508
Comments: Parent=-1
Splash: splash10-03di-0900000000-cfada50ed67d18cf5ef9
Num Peaks: 14
117.033 6
134.032 0
135.044 91
136.046 3
145.028 120
146.031 9
162.902 0
163.038 999
163.247 0
163.376 0
164.041 81
165.042 0
181.047 4
337.089 4

Name: Tyrosine
Synon: 2-amino-3-(4-hydroxyphenyl)propanoic acid
DB#: MSBNK-IPB_Halle-PB000412
InChIKey: OUYCCCASQSFEME-UHFFFAOYSA-N
InChI: InChI=1S/C9H11NO3/c10-8(9(12)13)5-6-1-3-7(11)4-2-6/h1-4,8,11H,5,10H2,(H,12,13)
SMILES: C1=CC(=CC=C1CC(C(=O)O)N)O
Precursor_type: [M+H]+
Spectrum_type: MS2
Instrument_type: LC-ESI-QTOF
Instrument: API QSTAR Pulsar i
Ion_mode: POSITIVE
Collision_energy: 25 eV
Formula: C9H11NO3
MW: 181
ExactMass: 181.07389
Comments: Parent=-1
Splash: splash10-00kr-0900000000-87801ed16c51bc9eea00
Num Peaks: 10
91.055 36
95.050 14
119.052 201
121.066 11
123.043 385
136.076 999
137.076 20
147.045 204
165.057 355
182.082 21

Name: Alanine
Synon: 2-aminopropanoic acid
DB#: MSBNK-IPB_Halle-PB000387
InChIKey: QNAYBMKLOCPYGJ-UHFFFAOYSA-N
InChI: InChI=1S/C3H7NO2/c1-2(4)3(5)6/h2H,4H2,1H3,(H,5,6)
SMILES: CC(C(=O)O)N
Precursor_type: [M+H]+
Spectrum_type: MS2
Instrument_type: LC-ESI-QTOF
Instrument: API QSTAR Pulsar i
Ion_mode: POSITIVE
Collision_energy: 10 eV
Formula: C3H7NO2
MW: 89
ExactMass: 89.04768
Comments: Parent=-1
Splash: splash10-0006-9000000000-7316581ed9372eeedde0
Num Peaks: 2
44.049 609
90.056 999

Name: Quercetin
Synon: 2-(3,4-dihydroxyphenyl)-3,5,7-trihydroxychromen-4-one
DB#: MSBNK-IPB_Halle-PB000201
InChIKey: REFJWTPEDVJJIY-UHFFFAOYSA-N
InChI: InChI=1S/C15H10O7/c16-7-4-10(19)12-11(5-7)22-15(14(21)13(12)20)6-1-2-8(17)9(18)3-6/h1-5,16-19,21H
SMILES: C1=CC(=C(C=C1C2=C(C(=O)C3=C(C=C(C=C3O2)O)O)O)O)O
Precursor_type: [M+H]+
Spectrum_type: MS2
Instrument_type: LC-ESI-QTOF
Instrument: API QSTAR Pulsar i
Ion_mode: POSITIVE
Collision_energy: 25 eV
Formula: C15H10O7
MW: 302
ExactMass: 302.04265
Comments: Parent=-1
Splash: splash10-0udi-0009000000-f3f724fc952cbc28c800
Num Peaks: 8
137.023 9
153.018 12
165.020 15
229.054 30
257.053 25
285.046 12
303.050 999
304.061 50

Name: Syringaldehyde
Synon: 4-hydroxy-3,5-dimethoxybenzaldehyde
DB#: MSBNK-IPB_Halle-PB000621
InChIKey: KCDXJAYRVLXPFO-UHFFFAOYSA-N
InChI: InChI=1S/C9H10O4/c1-12-7-3-6(5-10)4-8(13-2)9(7)11/h3-5,11H,1-2H3
SMILES: COC1=CC(=CC(=C1O)OC)C=O
Precursor_type: [M+H]+
Spectrum_type: MS2
Instrument_type: LC-ESI-QTOF
Instrument: API QSTAR Pulsar i
Ion_mode: POSITIVE
Collision_energy: 35 eV
Formula: C9H10O4
MW: 182
ExactMass: 182.05791
Comments: Parent=-1
Splash: splash10-004i-9100000000-54826f5ed4bf4c650678
Num Peaks: 13
41.040 14
55.021 62
65.040 331
67.055 177
77.041 999
80.028 41
93.037 41
95.054 550
97.034 86
105.048 48
123.044 21
125.026 211
140.052 139

Name: Biochanin A O-triglucoside
DB#: MSBNK-IPB_Halle-PN000075
InChI: N/A
SMILES: N/A
Precursor_type: [M+H]+
Spectrum_type: MS2
PrecursorMZ: 771.238
Instrument_type: ESI-TOF
Instrument: micrOTOF-Q
Ion_mode: POSITIVE
Collision_energy: 15 eV
Formula: C34H42O20
MW: 770
ExactMass: 770.226943744
Comments: Parent=771.238
Splash: splash10-0a4r-0050209000-6a3b7939d5fd126fdb31
Num Peaks: 4
285.0765 833
447.1227 361
609.1782 999
610.1874 278

Name: Glutamic acid
Synon: 2-aminopentanedioic acid
DB#: MSBNK-IPB_Halle-PB000461
InChIKey: WHUUTDBJXJRKMK-UHFFFAOYSA-N
InChI: InChI=1S/C5H9NO4/c6-3(5(9)10)1-2-4(7)8/h3H,1-2,6H2,(H,7,8)(H,9,10)
SMILES: C(CC(=O)O)C(C(=O)O)N
Precursor_type: [M+H]+
Spectrum_type: MS2
Instrument_type: LC-ESI-QTOF
Instrument: API QSTAR Pulsar i
Ion_mode: POSITIVE
Collision_energy: 10 eV
Formula: C5H9NO4
MW: 147
ExactMass: 147.05316
Comments: Parent=-1
Splash: splash10-0002-0900000000-dfbb29e9a331e253d85f
Num Peaks: 4
84.045 22
102.056 67
130.049 177
148.059 999

Name: 5-methoxyindole-3-carbaldehyde
DB#: MSBNK-IPB_Halle-PB000500
InChIKey: TUWARWGEOHQXCO-UHFFFAOYSA-N
InChI: InChI=1S/C10H9NO2/c1-13-8-2-3-10-9(4-8)7(6-12)5-11-10/h2-6,11H,1H3
SMILES: COC1=CC2=C(C=C1)NC=C2C=O
Precursor_type: [M+H]+
Spectrum_type: MS2
Instrument_type: LC-ESI-QTOF
Instrument: API QSTAR Pulsar i
Ion_mode: POSITIVE
Collision_energy: 10 eV
Formula: C10H9NO2
MW: 175
ExactMass: 175.06333
Comments: Parent=-1
Splash: splash10-004i-0900000000-60c5041c51a5a929a0ce
Num Peaks: 2
148.075 12
176.070 999

Name: Harmane
Synon: 1-methyl-9H-pyrido[3,4-b]indole
DB#: MSBNK-IPB_Halle-PB005782
InChIKey: PSFDQSOCUJVVGF-UHFFFAOYSA-N
InChI: InChI=1S/C12H10N2/c1-8-12-10(6-7-13-8)9-4-2-3-5-11(9)14-12/h2-7,14H,1H3
SMILES: CC1=NC=CC2=C1NC3=CC=CC=C23
Precursor_type: [M+H]+
Spectrum_type: MS2
Instrument_type: LC-ESI-QTOF
Instrument: micrOTOF-Q
Ion_mode: POSITIVE
Collision_energy: 20 eV
Formula: C12H10N2
MW: 182
ExactMass: 182.08440
Comments: Parent=-1
Splash: splash10-001i-0900000000-181c3a8132c8bd7c42ac
Num Peaks: 23
115.052 54
116.054 4
128.058 2
129.068 5
140.048 3
141.054 3
142.062 46
143.066 3
154.062 3
155.070 4
156.078 9
157.082 0
166.062 4
167.062 12
168.065 72
169.068 5
181.074 4
182.081 52
182.195 0
182.936 0
183.089 999
184.092 100
185.071 4

Name: 3,4,5-Trimethoxycinnamic acid
Synon: (E)-3-(3,4,5-trimethoxyphenyl)prop-2-enoic acid
DB#: MSBNK-IPB_Halle-PB005823
InChIKey: YTFVRYKNXDADBI-SNAWJCMRSA-N
InChI: InChI=1S/C12H14O5/c1-15-9-6-8(4-5-11(13)14)7-10(16-2)12(9)17-3/h4-7H,1-3H3,(H,13,14)/b5-4+
SMILES: COC1=CC(=CC(=C1OC)OC)/C=C/C(=O)O
Precursor_type: [M+H]+
Spectrum_type: MS2
Instrument_type: LC-ESI-QTOF
Instrument: micrOTOF-Q
Ion_mode: POSITIVE
Collision_energy: 20 eV
Formula: C12H14O5
MW: 238
ExactMass: 238.08412
Comments: Parent=-1
Splash: splash10-01ox-0910000000-eb35950d925bbd52e2e7
Num Peaks: 106
102.044 0
107.047 2
115.052 4
116.059 0
117.032 3
117.070 0
118.040 18
119.048 38
120.053 8
121.063 43
122.069 8
123.043 10
124.051 3
125.058 2
129.033 6
130.040 83
131.047 82
132.055 75
133.030 67
133.060 67
134.036 6
134.068 20
135.042 217
136.048 27
137.058 19
138.066 64
139.039 0
139.072 21
140.040 0
142.038 1
144.055 9
145.027 27
146.035 38
147.042 505
148.049 151
149.058 180
150.065 82
151.073 22
152.048 8
153.054 3
154.061 57
155.063 2
157.026 0
158.035 15
159.042 28
160.050 125
161.057 161
162.066 476
162.270 0
162.944 0
163.038 999
163.186 0
163.351 0
163.467 0
164.043 92
164.080 1
165.054 58
166.058 6
167.068 52
168.073 5
169.084 84
170.035 1
170.086 6
172.049 3
173.021 12
174.030 48
175.037 386
176.044 183
177.053 289
177.143 0
178.060 606
178.199 0
179.066 116
180.075 25
181.050 9
182.056 7
187.038 8
188.045 43
189.053 53
190.061 894
190.382 0
190.454 0
190.898 0
191.033 860
191.268 0
192.037 102
193.083 491
194.087 59
195.068 0
195.094 4
196.066 0
197.079 14
198.079 0
205.047 82
206.055 599
207.060 78
208.071 234
208.261 0
209.065 29
210.067 1
221.078 361
222.082 42
223.069 2
224.066 25
225.068 2
239.090 7

Name: Sinapine
Synon: 2-[(E)-3-(4-hydroxy-3,5-dimethoxyphenyl)prop-2-enoyl]oxyethyl-trimethylazanium
DB#: MSBNK-IPB_Halle-PB006007
InChIKey: HUJXHFRXWWGYQH-UHFFFAOYSA-O
InChI: InChI=1S/C16H23NO5/c1-17(2,3)8-9-22-15(18)7-6-12-10-13(20-4)16(19)14(11-12)21-5/h6-7,10-11H,8-9H2,1-5H3/p+1
SMILES: C[N+](C)(C)CCOC(=O)C=CC1=CC(=C(C(=C1)OC)O)OC
Precursor_type: [M]+
Spectrum_type: MS2
PrecursorMZ: 310.16545
Instrument_type: LC-ESI-QTOF
Instrument: micrOTOF-Q
Ion_mode: POSITIVE
Collision_energy: 25 eV
Formula: [C16H24NO5]+
MW: 310
ExactMass: 310.16545
Comments: Parent=310.16545
Splash: splash10-0udi-0390000000-fe4aa244978824523259
Num Peaks: 52
115.052 3
117.070 0
119.048 14
120.052 0
129.031 4
131.046 0
132.020 0
132.055 1
134.034 0
135.043 1
136.049 2
143.046 0
145.062 3
146.037 0
146.070 0
147.042 93
148.046 7
149.023 0
149.056 0
151.038 6
160.050 0
161.059 1
162.030 2
163.037 5
164.045 17
165.049 0
174.029 3
175.037 279
176.041 25
177.051 1
179.069 11
180.056 0
181.084 1
190.059 6
191.034 6
192.041 6
193.047 0
206.054 1
207.062 245
208.062 19
209.049 0
218.056 2
219.064 1
221.044 1
235.057 21
236.064 54
237.065 4
250.897 0
251.088 999
251.528 0
252.091 103
253.094 1

Name: Nicotianamine
Synon: (2S)-1-[(3S)-3-{[(3S)-3-amino-3-carboxypropyl]amino}-3-carboxypropyl]azetidine-2-carboxylic acid
DB#: MSBNK-IPB_Halle-PB003701
InChIKey: KRGPXXHMOXVMMM-CIUDSAMLSA-N
InChI: InChI=1S/C12H21N3O6/c13-7(10(16)17)1-4-14-8(11(18)19)2-5-15-6-3-9(15)12(20)21/h7-9,14H,1-6,13H2,(H,16,17)(H,18,19)(H,20,21)/t7-,8-,9-/m0/s1
SMILES: C1CN([C@@H]1C(=O)O)CC[C@@H](C(=O)O)NCC[C@@H](C(=O)O)N
Precursor_type: [M-H]-
Spectrum_type: MS2
Instrument_type: LC-ESI-QQ
Instrument: TSQ 7000
Ion_mode: NEGATIVE
Collision_energy: 25 eV
Formula: C12H21N3O6
MW: 303
ExactMass: 303.14303
Comments: Parent=-1
Splash: splash10-001i-1890000000-7eb462ed106c6f61e427
Num Peaks: 52
55.000 5
68.000 47
71.000 219
84.000 4
86.000 9
96.000 45
99.000 164
100.000 69
111.000 47
114.000 6
117.000 249
118.000 32
139.000 20
140.000 128
150.000 1
156.000 9
157.000 86
158.000 2
165.000 15
167.000 63
171.000 14
182.000 999
184.000 102
186.000 461
187.000 76
197.000 1
199.000 57
200.000 397
201.000 259
202.000 75
212.000 382
213.000 87
214.000 23
218.000 55
222.000 3
224.000 14
230.000 19
238.000 23
239.000 95
240.000 120
241.000 109
251.000 25
255.000 43
256.000 24
257.000 2
258.000 188
267.000 27
277.000 17
284.000 580
285.000 28
302.000 96
303.000 9

Name: Glycine-Betaine
Synon: 2-trimethylazaniumylacetate
DB#: MSBNK-IPB_Halle-PB001709
InChIKey: KWIUHFFTVRNATP-UHFFFAOYSA-N
InChI: InChI=1S/C5H11NO2/c1-6(2,3)4-5(7)8/h4H2,1-3H3
SMILES: C[N+](C)(C)CC(=O)[O-]
Precursor_type: [M]+
Spectrum_type: MS2
Instrument_type: LC-ESI-QQ
Instrument: TSQ 7000
Ion_mode: POSITIVE
Collision_energy: 25 eV
Formula: C5H11NO2
MW: 117
ExactMass: 117.07898
Comments: Parent=-1
Splash: splash10-0a4i-9200000000-709208d6782f1b588501
Num Peaks: 11
30.000 0
43.000 0
44.000 0
57.000 0
58.000 552
59.000 999
74.000 2
102.000 1
103.000 0
117.000 1
118.000 349

Name: Xanthohumol
Synon: (E)-1-[2,4-dihydroxy-6-methoxy-3-(3-methylbut-2-enyl)phenyl]-3-(4-hydroxyphenyl)prop-2-en-1-one
DB#: MSBNK-IPB_Halle-PB005729
InChIKey: ORXQGKIUCDPEAJ-YRNVUSSQSA-N
InChI: InChI=1S/C21H22O5/c1-13(2)4-10-16-18(24)12-19(26-3)20(21(16)25)17(23)11-7-14-5-8-15(22)9-6-14/h4-9,11-12,22,24-25H,10H2,1-3H3/b11-7+
SMILES: CC(=CCC1=C(C(=C(C=C1O)OC)C(=O)/C=C/C2=CC=C(C=C2)O)O)C
Precursor_type: [M+H]+
Spectrum_type: MS2
Instrument_type: LC-ESI-QTOF
Instrument: micrOTOF-Q
Ion_mode: POSITIVE
Collision_energy: 20 eV
Formula: C21H22O5
MW: 354
ExactMass: 354.14672
Comments: Parent=-1
Splash: splash10-004i-0900000000-cee69c093feb8d9b8aa3
Num Peaks: 13
151.037 3
161.018 0
178.899 0
179.031 999
180.035 68
181.038 0
197.042 64
198.045 3
235.092 7
257.076 35
258.080 3
299.087 33
300.089 4

Name: Xanthohumol
Synon: (E)-1-[2,4-dihydroxy-6-methoxy-3-(3-methylbut-2-enyl)phenyl]-3-(4-hydroxyphenyl)prop-2-en-1-one
DB#: MSBNK-IPB_Halle-PB005728
InChIKey: ORXQGKIUCDPEAJ-YRNVUSSQSA-N
InChI: InChI=1S/C21H22O5/c1-13(2)4-10-16-18(24)12-19(26-3)20(21(16)25)17(23)11-7-14-5-8-15(22)9-6-14/h4-9,11-12,22,24-25H,10H2,1-3H3/b11-7+
SMILES: CC(=CCC1=C(C(=C(C=C1O)OC)C(=O)/C=C/C2=CC=C(C=C2)O)O)C
Precursor_type: [M+H]+
Spectrum_type: MS2
Instrument_type: LC-ESI-QTOF
Instrument: micrOTOF-Q
Ion_mode: POSITIVE
Collision_energy: 15 eV
Formula: C21H22O5
MW: 354
ExactMass: 354.14672
Comments: Parent=-1
Splash: splash10-004i-0940000000-6983981e47a0f6af296b
Num Peaks: 16
151.035 0
178.911 0
179.031 999
180.035 62
181.037 1
197.041 66
198.044 4
235.093 21
236.097 1
257.076 40
258.080 4
299.086 463
300.089 69
301.093 1
355.148 18
356.151 3

Name: Kinetin
Synon: N-(furan-2-ylmethyl)-7H-purin-6-amine
DB#: MSBNK-IPB_Halle-PB000628
InChIKey: QANMHLXAZMSUEX-UHFFFAOYSA-N
InChI: InChI=1S/C10H9N5O/c1-2-7(16-3-1)4-11-9-8-10(13-5-12-8)15-6-14-9/h1-3,5-6H,4H2,(H2,11,12,13,14,15)
SMILES: C1=COC(=C1)CNC2=NC=NC3=C2NC=N3
Precursor_type: [M+H]+
Spectrum_type: MS2
Instrument_type: LC-ESI-QTOF
Instrument: API QSTAR Pulsar i
Ion_mode: POSITIVE
Collision_energy: 25 eV
Formula: C10H9N5O
MW: 215
ExactMass: 215.08071
Comments: Parent=-1
Splash: splash10-001i-9110000000-43394feb6e4bdfeecb4d
Num Peaks: 6
81.034 999
136.062 17
148.062 113
173.071 21
188.096 55
216.089 113

Name: Tryptophan
Synon: (2S)-2-amino-3-(1H-indol-3-yl)propanoic acid
DB#: MSBNK-IPB_Halle-PB006082
InChIKey: QIVBCDIJIAJPQS-VIFPVBQESA-N
InChI: InChI=1S/C11H12N2O2/c12-9(11(14)15)5-7-6-13-10-4-2-1-3-8(7)10/h1-4,6,9,13H,5,12H2,(H,14,15)/t9-/m0/s1
SMILES: C1=CC=C2C(=C1)C(=CN2)C[C@@H](C(=O)O)N
Precursor_type: [M+H]+
Spectrum_type: MS2
Instrument_type: LC-ESI-QTOF
Instrument: micrOTOF-Q
Ion_mode: POSITIVE
Collision_energy: 10 eV
Formula: C11H12N2O2
MW: 204
ExactMass: 204.08988
Comments: Parent=-1
Splash: splash10-000i-0900000000-c85ba4facf645f32c4c7
Num Peaks: 22
115.052 0
117.058 2
118.064 21
119.067 0
130.063 5
132.079 22
133.082 1
142.063 5
143.071 5
144.079 72
145.082 5
146.058 402
147.062 30
159.090 63
160.083 7
170.058 29
171.061 2
188.069 999
189.072 98
190.075 2
205.095 8
206.097 0

Name: Luteolin
Synon: Luteolol
Synon: Flacitran
DB#: MSBNK-IPB_Halle-PN000113
InChIKey: IQPNAANSBPBGFQ-UHFFFAOYSA-N
InChI: InChI=1S/C15H10O6/c16-8-4-11(19)15-12(20)6-13(21-14(15)5-8)7-1-2-9(17)10(18)3-7/h1-6,16-19H
SMILES: OC1=CC(O)=C2C(=O)C=C(OC2(=C1))C3=CC=C(O)C(O)=C3
Precursor_type: [M+H]+
Spectrum_type: MS2
PrecursorMZ: 287.053
Instrument_type: ESI-TOF
Instrument: micrOTOF-Q
Ion_mode: POSITIVE
Collision_energy: 15 eV
Formula: C15H10O6
MW: 286
ExactMass: 286.04773804
Comments: Parent=287.053
Splash: splash10-0udr-0910000000-3539e18ffd571afc7643
Num Peaks: 33
89.038 158
90.042 16
97.027 26
107.047 28
109.029 22
111.011 25
115.054 45
117.034 126
127.047 16
128.063 43
129.067 18
135.044 232
136.048 20
137.022 117
139.053 83
145.062 15
153.018 999
154.022 62
157.063 47
161.023 146
162.024 18
167.048 21
171.041 32
179.036 16
185.057 56
195.042 17
212.042 12
213.054 42
241.047 64
242.052 16
269.048 17
287.053 135
288.056 31

Name: Luteone O-glucoside
DB#: MSBNK-IPB_Halle-PN000099
InChI: N/A
SMILES: N/A
Precursor_type: [M+H]+
Spectrum_type: MS2
PrecursorMZ: 517.174
Instrument_type: ESI-TOF
Instrument: micrOTOF-Q
Ion_mode: POSITIVE
Collision_energy: 15 eV
Formula: C26H28O11
MW: 516
ExactMass: 516.163161716
Comments: Parent=517.174
Splash: splash10-03di-0030900000-c5a209c8a60c89476817
Num Peaks: 2
299.0628 343
461.1114 999

Name: Genistein 4',7-O-diglucoside malonylated
DB#: MSBNK-IPB_Halle-PN000032
InChI: N/A
SMILES: N/A
Precursor_type: [M+H]+
Spectrum_type: MS2
PrecursorMZ: 681.174
Instrument_type: ESI-TOF
Instrument: micrOTOF-Q
Ion_mode: POSITIVE
Collision_energy: 15 eV
Formula: C30H32O18
MW: 680
ExactMass: 680.158864184
Comments: Parent=681.174
Splash: splash10-001i-0040922000-fdd8b8e2feddb30a92b5
Num Peaks: 9
271.0625 589
272.0700 81
433.1173 999
434.1201 258
435.1039 66
519.1165 288
520.1188 63
681.1680 272
682.1637 121

Name: Lysine
Synon: 2,6-diaminohexanoic acid
DB#: MSBNK-IPB_Halle-PB000428
InChIKey: KDXKERNSBIXSRK-UHFFFAOYSA-N
InChI: InChI=1S/C6H14N2O2/c7-4-2-1-3-5(8)6(9)10/h5H,1-4,7-8H2,(H,9,10)
SMILES: C(CCN)CC(C(=O)O)N
Precursor_type: [M+H]+
Spectrum_type: MS2
Instrument_type: LC-ESI-QTOF
Instrument: API QSTAR Pulsar i
Ion_mode: POSITIVE
Collision_energy: 20 eV
Formula: C6H14N2O2
MW: 146
ExactMass: 146.10553
Comments: Parent=-1
Splash: splash10-001i-9200000000-75ce14082d38b6589d4a
Num Peaks: 9
56.051 4
67.056 5
84.082 999
85.066 5
102.094 4
112.077 3
129.104 7
130.087 253
147.113 16

Name: Quercetin
Synon: 2-(3,4-dihydroxyphenyl)-3,5,7-trihydroxychromen-4-one
DB#: MSBNK-IPB_Halle-PB000181
InChIKey: REFJWTPEDVJJIY-UHFFFAOYSA-N
InChI: InChI=1S/C15H10O7/c16-7-4-10(19)12-11(5-7)22-15(14(21)13(12)20)6-1-2-8(17)9(18)3-6/h1-5,16-19,21H
SMILES: C1=CC(=C(C=C1C2=C(C(=O)C3=C(C=C(C=C3O2)O)O)O)O)O
Precursor_type: [M+H]+
Spectrum_type: MS2
Instrument_type: LC-ESI-QTOF
Instrument: API QSTAR Pulsar i
Ion_mode: POSITIVE
Collision_energy: 15 eV
Formula: C15H10O7
MW: 302
ExactMass: 302.04265
Comments: Parent=-1
Splash: splash10-0udi-0009000000-8653f7bcf5d38cee7445
Num Peaks: 2
303.050 999
304.062 37

Name: Emetine
Synon: (2S,3R,11bS)-2-[[(1R)-6,7-dimethoxy-1,2,3,4-tetrahydroisoquinolin-1-yl]methyl]-3-ethyl-9,10-dimethoxy-2,3,4,6,7,11b-hexahydro-1H-pyrido[2,1-a]isoquinoline
DB#: MSBNK-IPB_Halle-PB005910
InChIKey: AUVVAXYIELKVAI-CKBKHPSWSA-N
InChI: InChI=1S/C29H40N2O4/c1-6-18-17-31-10-8-20-14-27(33-3)29(35-5)16-23(20)25(31)12-21(18)11-24-22-15-28(34-4)26(32-2)13-19(22)7-9-30-24/h13-16,18,21,24-25,30H,6-12,17H2,1-5H3/t18-,21-,24+,25-/m0/s1
SMILES: CC[C@H]1CN2CCC3=CC(=C(C=C3[C@@H]2C[C@@H]1C[C@@H]4C5=CC(=C(C=C5CCN4)OC)OC)OC)OC
Precursor_type: [M+H]+
Spectrum_type: MS2
Instrument_type: LC-ESI-QTOF
Instrument: micrOTOF-Q
Ion_mode: POSITIVE
Collision_energy: 15 eV
Formula: C29H40N2O4
MW: 480
ExactMass: 480.29881
Comments: Parent=-1
Splash: splash10-001i-0000900000-ba74da847ef0f1bebdbf
Num Peaks: 13
246.145 7
272.161 0
274.176 6
464.274 8
465.275 1
479.289 1
480.294 1
480.824 0
480.977 0
481.300 999
481.888 0
482.303 216
483.306 6

Name: Caffeoylcholine
Synon: 2-[(E)-3-(3,4-dihydroxyphenyl)prop-2-enoyl]oxyethyl-trimethylazanium
DB#: MSBNK-IPB_Halle-PB000321
InChIKey: HLGBXKIGYXVIFU-UHFFFAOYSA-O
InChI: InChI=1S/C14H19NO4/c1-15(2,3)8-9-19-14(18)7-5-11-4-6-12(16)13(17)10-11/h4-7,10H,8-9H2,1-3H3,(H-,16,17,18)/p+1
SMILES: C[N+](C)(C)CCOC(=O)C=CC1=CC(=C(C=C1)O)O
Precursor_type: [M]+
Spectrum_type: MS2
Instrument_type: LC-ESI-QTOF
Instrument: API QSTAR Pulsar i
Ion_mode: POSITIVE
Collision_energy: 55 eV
Formula: [C14H20NO4]+
MW: 266
ExactMass: 266.13923
Comments: Parent=-1
Splash: splash10-00kr-1900000000-907474f5937c8b214b8e
Num Peaks: 7
89.040 325
107.048 116
117.035 999
130.070 37
135.043 786
145.029 361
163.040 345

Name: Reserpine
Synon: methyl (1R,15S,17R,18R,19S,20S)-6,18-dimethoxy-17-[(3,4,5-trimethoxyphenyl)carbonyloxy]- 3,13-diazapentacyclo[11.8.0.02,10.04,9.015,20]henicosa-2(10),4(9),5,7-tetraene-19-carboxylate
DB#: MSBNK-IPB_Halle-PB005764
InChIKey: QEVHRUUCFGRFIF-MDEJGZGSSA-N
InChI: InChI=1S/C33H40N2O9/c1-38-19-7-8-20-21-9-10-35-16-18-13-27(44-32(36)17-11-25(39-2)30(41-4)26(12-17)40-3)31(42-5)28(33(37)43-6)22(18)15-24(35)29(21)34-23(20)14-19/h7-8,11-12,14,18,22,24,27-28,31,34H,9-10,13,15-16H2,1-6H3/t18-,22+,24-,27-,28+,31+/m1/s1
SMILES: CO[C@H]1[C@@H](C[C@@H]2CN3CCC4=C([C@H]3C[C@@H]2[C@@H]1C(=O)OC)NC5=C4C=CC(=C5)OC)OC(=O)C6=CC(=C(C(=C6)OC)OC)OC
Precursor_type: [M+H]+
Spectrum_type: MS2
Instrument_type: LC-ESI-QTOF
Instrument: micrOTOF-Q
Ion_mode: POSITIVE
Collision_energy: 30 eV
Formula: C33H40N2O9
MW: 608
ExactMass: 608.27338
Comments: Parent=-1
Splash: splash10-0002-0539201000-768cf840a0a7d1abe7f6
Num Peaks: 199
130.063 1
131.072 2
132.081 0
139.074 3
143.071 2
144.079 1
147.079 0
148.074 8
149.071 0
150.089 0
152.045 5
158.059 0
159.067 7
160.075 9
161.079 1
162.089 3
163.077 0
164.102 0
166.085 0
167.070 5
169.084 0
172.075 1
173.079 0
174.090 307
175.091 25
176.105 8
177.102 0
178.085 3
181.082 0
185.078 2
186.090 4
187.085 1
188.105 14
189.104 1
190.085 4
192.100 44
193.097 4
194.910 0
195.063 685
196.067 48
197.072 0
198.091 1
199.094 1
200.105 15
201.102 3
202.115 0
204.100 16
205.101 1
206.116 0
207.101 1
210.100 3
211.094 1
212.104 6
213.100 1
214.109 8
215.115 28
216.118 3
218.114 0
219.101 0
222.110 11
224.125 98
225.127 8
226.118 4
227.117 7
228.123 5
229.130 10
230.129 0
235.101 0
236.125 236
237.127 24
238.122 11
239.125 1
240.119 0
241.123 0
242.130 5
247.099 0
248.108 3
249.109 2
250.120 5
251.122 2
252.129 4
253.131 10
254.135 10
255.120 2
258.109 0
260.105 0
261.113 0
262.119 5
263.125 1
264.132 3
265.130 4
266.136 2
267.142 4
274.126 3
275.126 2
276.134 12
277.139 2
278.146 0
279.144 2
280.136 0
281.159 4
284.126 2
286.136 2
287.137 2
288.135 12
289.141 5
290.117 8
291.134 1
292.124 0
294.141 1
296.125 0
297.134 0
298.126 0
301.105 0
302.116 1
304.129 13
305.157 7
306.160 4
307.140 0
308.147 4
309.138 2
310.139 1
316.130 8
317.133 0
318.136 0
319.117 0
320.153 1
321.145 0
322.142 19
323.144 2
324.154 1
333.155 24
334.147 10
335.149 0
336.155 83
337.163 17
338.173 2
339.164 1
340.152 2
341.181 1
347.173 3
348.156 42
349.157 6
350.159 2
352.156 0
353.125 1
354.165 12
355.171 1
365.182 253
366.182 50
367.184 3
368.175 62
369.181 11
370.188 0
379.197 4
380.182 24
381.181 7
382.181 3
383.189 0
386.191 3
395.192 2
396.197 0
396.671 0
396.930 0
397.208 999
397.630 0
397.751 0
397.837 0
397.956 0
398.211 176
399.209 5
402.151 6
403.147 0
404.165 6
405.172 0
413.203 13
414.206 2
416.166 3
422.182 0
434.177 26
435.180 4
436.192 65
437.195 11
448.192 356
449.196 62
450.202 2
548.224 0
559.235 2
560.229 1
577.249 32
578.253 9
580.246 0
581.251 0
591.264 1
592.254 2
593.259 0
609.275 282
610.279 81
611.281 2

Name: Safranin
Synon: 3,7-dimethyl-10-phenylphenazin-10-ium-2,8-diamine
DB#: MSBNK-IPB_Halle-PB005984
InChIKey: WULISCVZERSMML-UHFFFAOYSA-O
InChI: InChI=1S/C20H18N4/c1-12-8-17-19(10-15(12)21)24(14-6-4-3-5-7-14)20-11-16(22)13(2)9-18(20)23-17/h3-11H,1-2H3,(H3,21,22)/p+1
SMILES: CC1=CC2=C(C=C1N)[N+](=C3C=C(C(=CC3=N2)C)N)C4=CC=CC=C4
Precursor_type: [M]+
Spectrum_type: MS2
Instrument_type: LC-ESI-QTOF
Instrument: micrOTOF-Q
Ion_mode: POSITIVE
Collision_energy: 40 eV
Formula: [C20H19N4]+
MW: 315
ExactMass: 315.16097
Comments: Parent=-1
Splash: splash10-000b-0091000000-51a17a2068de36f4a0aa
Num Peaks: 146
115.054 0
130.065 0
131.059 0
141.065 0
143.069 0
144.076 0
145.073 2
146.076 0
152.058 0
153.063 0
154.065 0
155.060 2
157.069 0
158.071 0
160.085 0
165.067 3
166.064 3
167.070 11
168.070 5
169.073 6
170.077 2
171.087 0
172.084 0
179.065 2
180.073 5
181.078 5
182.080 10
183.086 6
184.087 1
185.094 0
186.101 0
191.067 1
192.067 2
193.075 8
194.079 7
195.081 19
196.085 52
197.092 132
198.098 38
199.101 2
203.062 1
204.069 4
205.072 9
206.071 27
207.079 19
208.082 32
209.091 21
210.099 378
210.235 0
211.106 223
212.109 55
213.111 7
217.077 0
218.081 4
219.085 4
220.084 75
221.091 75
222.095 114
223.095 268
224.099 36
225.106 1
227.065 0
228.074 1
229.075 3
230.085 2
231.087 9
232.093 7
233.096 15
234.100 6
235.096 9
236.105 15
236.991 0
237.110 714
237.302 0
237.477 0
237.936 0
238.117 758
239.121 88
240.125 0
241.079 2
242.083 9
243.086 6
244.091 6
245.100 15
246.103 13
247.109 18
248.114 20
249.120 3
252.078 0
253.078 2
254.087 4
255.089 37
256.095 59
257.098 61
258.099 53
259.106 27
260.115 36
261.121 13
262.129 8
263.134 0
265.073 1
266.080 10
267.083 12
268.086 17
269.102 39
270.107 45
271.113 61
272.115 159
273.122 242
274.128 84
275.133 11
276.133 0
279.087 58
280.095 113
281.099 68
282.100 136
283.105 109
284.106 195
285.111 76
286.129 144
287.136 145
288.143 74
289.147 10
294.098 0
295.106 7
296.114 68
297.121 238
298.126 254
298.791 0
298.893 0
298.958 0
299.125 999
299.413 0
299.524 0
299.719 0
299.830 0
300.130 288
301.135 25
311.125 3
312.130 9
313.140 172
314.147 112
315.156 569
316.159 107
317.118 2
329.111 0

Name: IAA-Val , Indole-3-acetyl-L-valine
Synon: (2S)-2-[[2-(1H-indol-3-yl)acetyl]amino]-3-methylbutanoic acid
DB#: MSBNK-IPB_Halle-PB005790
InChIKey: AZEGJHGXTSUPPG-AWEZNQCLSA-N
InChI: InChI=1S/C15H18N2O3/c1-9(2)14(15(19)20)17-13(18)7-10-8-16-12-6-4-3-5-11(10)12/h3-6,8-9,14,16H,7H2,1-2H3,(H,17,18)(H,19,20)/t14-/m0/s1
SMILES: CC(C)[C@@H](C(=O)O)NC(=O)CC1=CNC2=CC=CC=C21
Precursor_type: [M+H]+
Spectrum_type: MS2
Instrument_type: LC-ESI-QTOF
Instrument: micrOTOF-Q
Ion_mode: POSITIVE
Collision_energy: 20 eV
Formula: C15H18N2O3
MW: 274
ExactMass: 274.13174
Comments: Parent=-1
Splash: splash10-001i-0900000000-5cbd681eda982cd45b27
Num Peaks: 9
128.048 8
129.056 0
130.064 999
131.067 63
146.058 2
158.059 2
229.132 9
230.135 0
234.947 0

Name: Kinetin
Synon: N-(furan-2-ylmethyl)-7H-purin-6-amine
DB#: MSBNK-IPB_Halle-PB005863
InChIKey: QANMHLXAZMSUEX-UHFFFAOYSA-N
InChI: InChI=1S/C10H9N5O/c1-2-7(16-3-1)4-11-9-8-10(13-5-12-8)15-6-14-9/h1-3,5-6H,4H2,(H2,11,12,13,14,15)
SMILES: C1=COC(=C1)CNC2=NC=NC3=C2NC=N3
Precursor_type: [M+H]+
Spectrum_type: MS2
Instrument_type: LC-ESI-QTOF
Instrument: micrOTOF-Q
Ion_mode: POSITIVE
Collision_energy: 20 eV
Formula: C10H9N5O
MW: 215
ExactMass: 215.08071
Comments: Parent=-1
Splash: splash10-0002-0900000000-3bcaa7373b3d41fc3c53
Num Peaks: 33
119.035 57
120.041 3
121.049 37
122.051 0
134.065 1
135.065 31
136.060 157
137.061 9
144.052 5
145.048 2
146.055 8
147.066 7
148.060 999
148.131 1
149.062 66
159.067 4
160.066 3
161.080 21
162.078 12
171.065 58
172.061 24
173.067 146
174.071 20
186.072 0
187.084 0
188.091 209
189.095 20
197.067 1
198.076 23
199.071 2
201.063 2
216.086 112
217.088 15

Name: Tryptophan
Synon: (2S)-2-amino-3-(1H-indol-3-yl)propanoic acid
DB#: MSBNK-IPB_Halle-PB006083
InChIKey: QIVBCDIJIAJPQS-VIFPVBQESA-N
InChI: InChI=1S/C11H12N2O2/c12-9(11(14)15)5-7-6-13-10-4-2-1-3-8(7)10/h1-4,6,9,13H,5,12H2,(H,14,15)/t9-/m0/s1
SMILES: C1=CC=C2C(=C1)C(=CN2)C[C@@H](C(=O)O)N
Precursor_type: [M+H]+
Spectrum_type: MS2
Instrument_type: LC-ESI-QTOF
Instrument: micrOTOF-Q
Ion_mode: POSITIVE
Collision_energy: 15 eV
Formula: C11H12N2O2
MW: 204
ExactMass: 204.08988
Comments: Parent=-1
Splash: splash10-0002-0900000000-a765305b14a15909ae5b
Num Peaks: 27
115.053 12
116.055 1
117.058 23
118.064 162
119.067 13
127.052 3
128.054 1
130.063 30
131.068 3
132.079 86
133.083 6
140.047 0
142.064 48
143.071 65
144.079 252
145.080 23
146.058 999
147.062 83
148.064 1
159.090 117
160.081 19
161.079 0
170.058 114
171.061 11
188.069 344
189.071 38
190.074 0

Name: 2-oxapentacyclo[21.2.2.13,7.110,14.015,20]nonacosa-1(25),3,5,7(29),10(28),11,13,15(20),16,18,23,26-dodecaene-4,13,18-triol
Synon: UTQZPYPEAXCDNU-UHFFFAOYSA-N
DB#: MSBNK-IPB_Halle-PB011301
InChIKey: UTQZPYPEAXCDNU-UHFFFAOYSA-N
InChI: InChI=1S/C28H24O4/c29-22-9-12-24-21(17-22)8-3-18-4-10-23(11-5-18)32-28-16-20(7-14-27(28)31)2-1-19-6-13-26(30)25(24)15-19/h4-7,9-17,29-31H,1-3,8H2
SMILES: C1CC2=C(C=CC(=C2)O)C3=C(C=CC(=C3)CCC4=CC(=C(C=C4)O)OC5=CC=C1C=C5)O
Precursor_type: [M+H]+
Spectrum_type: MS2
PrecursorMZ: 425.1747
Instrument_type: LC-ESI-QTOF
Instrument: Bruker MicrOTOF-Q
Ion_mode: POSITIVE
Collision_energy: 29.3881025
Formula: C28H24O4
MW: 424
ExactMass: 424.167
Comments: Parent=425.1747
Splash: splash10-03dr-0290000000-fc2829be88e8ac0622d8
Num Peaks: 167
117.06 1
119.05 7
120.05 21
121.06 31
122.07 3
128.06 1
129.06 1
131.05 3
131.09 2
133.06 4
133.11 1
135.04 5
136.05 1
137.06 1
141.07 1
145.06 4
146.07 2
147.04 1
148.08 1
149.07 1
152.06 5
153.07 2
154.07 1
155.08 1
157.07 8
161.06 1
164.06 1
165.07 21
166.08 6
167.09 53
168.09 10
169.07 4
170.07 6
171.08 11
176.06 4
177.07 28
178.08 15
179.08 9
180.06 1
181.07 30
182.07 7
183.08 31
184.08 6
185.1 47
186.1 6
187.07 1
190.07 1
191.08 5
192.06 1
193.1 25
194.1 6
195.08 175
196.09 42
197.06 62
198.07 69
199.08 211
200.08 27
201.08 5
202.08 10
203.09 18
204.09 3
206.07 12
207.08 18
208.09 4
209.09 22
210.07 61
211.08 213
212.08 56
213.09 999
214.1 149
215.09 33
216.09 4
217.1 4
219.08 13
220.09 7
221.1 116
222.1 25
223.08 16
224.08 71
225.09 324
226.09 67
227.11 26
228.11 5
231.07 1
235.08 3
236.08 1
237.09 66
238.1 19
239.11 933
240.11 154
241.11 19
242.08 1
244.09 1
247.1 1
248.08 1
249.09 2
251.1 2
253.09 1
257.12 1
258.11 1
259.11 2
261.08 1
261.1 2
262.1 2
263.11 1
264.1 1
264.12 1
265.13 1
267.12 1
268.11 2
269.1 5
270.1 3
271.11 4
273.09 2
275.11 8
277.12 3
279.14 1
281.09 2
283.11 6
284.11 2
285.12 10
286.1 5
287.11 8
288.11 3
289.12 4
290.09 2
291.14 3
292.15 1
293.09 1
294.11 1
295.11 11
296.12 2
298.1 7
298.17 1
299.11 16
300.11 4
301.12 17
302.11 4
303.14 35
304.13 6
305.12 7
306.12 6
311.11 5
312.11 1
313.12 25
314.13 11
315.11 2
315.12 2
316.13 4
317.12 51
318.12 14
319.13 103
320.14 27
321.13 2
322.14 1
329.11 3
331.13 41
332.14 21
333.14 6
347.12 1
351.15 1
374.12 1
397.18 2
407.16 6
408.18 2
423.18 1
425.17 25

Name: Luteone diglucoside malonylated
DB#: MSBNK-IPB_Halle-PN000088
InChI: N/A
SMILES: N/A
Precursor_type: [M+H]+
Spectrum_type: MS2
PrecursorMZ: 765.225
Instrument_type: ESI-TOF
Instrument: micrOTOF-Q
Ion_mode: POSITIVE
Collision_energy: 15 eV
Formula: C35H40O19
MW: 764
ExactMass: 764.21637906
Comments: Parent=765.225
Splash: splash10-014i-0000392400-f888b28c8e6e87457c65
Num Peaks: 7
461.1115 581
517.1744 999
518.1802 463
547.1169 259
603.1760 542
765.2197 690
766.2317 193

Name: Chelidonin
Synon: (+)-Chelidonine
Synon: [1,3]Benzodioxolo[5,6-c]-1,3-dioxolo[4,5-i]phenanthridin-6-ol, 5b,6,7,12b,13,14-hexahydro-13-methyl-, (5bR,6S,12bS)-
DB#: MSBNK-IPB_Halle-PB005902
InChIKey: GHKISGDRQRSCII-ZOCIIQOWSA-N
InChI: InChI=1S/C20H19NO5/c1-21-7-13-11(2-3-15-20(13)26-9-23-15)18-14(22)4-10-5-16-17(25-8-24-16)6-12(10)19(18)21/h2-3,5-6,14,18-19,22H,4,7-9H2,1H3/t14-,18-,19+/m0/s1
SMILES: CN1CC2=C(C=CC3=C2OCO3)[C@@H]4[C@H]1C5=CC6=C(C=C5C[C@@H]4O)OCO6
Precursor_type: [M+H]+
Spectrum_type: MS2
Instrument_type: LC-ESI-QTOF
Instrument: micrOTOF-Q
Ion_mode: POSITIVE
Collision_energy: 15 eV
Formula: C20H19NO5
MW: 353
ExactMass: 353.126323
Comments: Parent=-1
Splash: splash10-0zi0-0039000000-47ad7993648bdb14044c
Num Peaks: 38
135.042 9
161.058 3
163.037 6
173.057 0
176.069 1
188.068 1
189.068 0
217.064 3
235.073 1
237.088 2
245.057 2
247.072 58
248.077 5
263.068 1
265.082 13
266.084 1
267.062 0
275.067 553
276.070 76
277.077 2
279.062 1
293.077 19
294.081 1
295.093 70
296.096 9
305.077 410
306.081 64
307.091 6
308.092 0
323.088 366
324.091 54
325.100 0
336.119 86
337.123 13
354.130 999
354.600 0
355.133 165
356.137 3

Name: Cinchonine
Synon: (S)-(5-ethenyl-1-azabicyclo[2.2.2]octan-7-yl)-quinolin-4-ylmethanol
DB#: MSBNK-IPB_Halle-PB005841
InChIKey: KMPWYEUPVWOPIM-QAMTZSDWSA-N
InChI: InChI=1S/C19H22N2O/c1-2-13-12-21-10-8-14(13)11-18(21)19(22)16-7-9-20-17-6-4-3-5-15(16)17/h2-7,9,13-14,18-19,22H,1,8,10-12H2/t13-,14-,18+,19-/m0/s1
SMILES: C=C[C@H]1CN2CC[C@H]1C[C@@H]2[C@H](C3=CC=NC4=CC=CC=C34)O
Precursor_type: [M+H]+
Spectrum_type: MS2
Instrument_type: LC-ESI-QTOF
Instrument: micrOTOF-Q
Ion_mode: POSITIVE
Collision_energy: 10 eV
Formula: C19H22N2O
MW: 294
ExactMass: 294.17321
Comments: Parent=-1
Splash: splash10-0002-0090000000-b83a007e04ce7afb5bf3
Num Peaks: 7
234.124 0
277.166 16
278.170 1
294.969 0
295.176 999
296.180 150
297.183 1

Name: Indole-3-carboxylic acid
Synon: 1H-indole-3-carboxylic acid
DB#: MSBNK-IPB_Halle-PB005787
InChIKey: KMAKOBLIOCQGJP-UHFFFAOYSA-N
InChI: InChI=1S/C9H7NO2/c11-9(12)7-5-10-8-4-2-1-3-6(7)8/h1-5,10H,(H,11,12)
SMILES: C1=CC=C2C(=C1)C(=CN2)C(=O)O
Precursor_type: [M+H]+
Spectrum_type: MS2
Instrument_type: LC-ESI-QTOF
Instrument: micrOTOF-Q
Ion_mode: POSITIVE
Collision_energy: 20 eV
Formula: C9H7NO2
MW: 161
ExactMass: 161.04768
Comments: Parent=-1
Splash: splash10-014l-0900000000-391c26d59d3501f7004c
Num Peaks: 34
115.040 2
116.048 821
116.154 0
116.959 0
117.055 638
117.139 0
118.063 525
118.117 0
118.463 0
119.068 46
122.979 0
132.022 0
132.042 4
133.051 0
134.056 8
135.066 0
136.063 0
141.870 0
143.067 0
144.042 999
144.110 0
144.160 0
144.181 0
145.045 110
145.085 0
146.017 0
162.052 124
163.057 14
174.012 0
174.061 0
175.019 0
192.042 0
217.580 0
439.379 0

Name: Methionine
Synon: 2-amino-4-methylsulfanylbutanoic acid
DB#: MSBNK-IPB_Halle-PB000443
InChIKey: FFEARJCKVFRZRR-UHFFFAOYSA-N
InChI: InChI=1S/C5H11NO2S/c1-9-3-2-4(6)5(7)8/h4H,2-3,6H2,1H3,(H,7,8)
SMILES: CSCCC(C(=O)O)N
Precursor_type: [M+H]+
Spectrum_type: MS2
Instrument_type: LC-ESI-QTOF
Instrument: API QSTAR Pulsar i
Ion_mode: POSITIVE
Collision_energy: 30 eV
Formula: C5H11NO2S
MW: 149
ExactMass: 149.05105
Comments: Parent=-1
Splash: splash10-08fr-9000000000-56a9aa89915835ec0897
Num Peaks: 11
44.980 13
56.051 924
58.996 11
61.012 999
74.024 106
84.045 32
85.027 22
87.027 83
102.056 34
104.055 35
133.033 16

Name: Tetrahydropapaveroline
Synon: 1-[(3,4-dihydroxyphenyl)methyl]-1,2,3,4-tetrahydroisoquinoline-6,7-diol
DB#: MSBNK-IPB_Halle-PB005924
InChIKey: ABXZOXDTHTTZJW-UHFFFAOYSA-N
InChI: InChI=1S/C16H17NO4/c18-13-2-1-9(6-14(13)19)5-12-11-8-16(21)15(20)7-10(11)3-4-17-12/h1-2,6-8,12,17-21H,3-5H2
SMILES: C1CNC(C2=CC(=C(C=C21)O)O)CC3=CC(=C(C=C3)O)O
Precursor_type: [M+H]+
Spectrum_type: MS2
Instrument_type: LC-ESI-QTOF
Instrument: micrOTOF-Q
Ion_mode: POSITIVE
Collision_energy: 15 eV
Formula: C16H17NO4
MW: 287
ExactMass: 287.11576
Comments: Parent=-1
Splash: splash10-03k9-0890000000-454a3dba17fb0a9a1feb
Num Peaks: 55
115.053 8
123.043 247
124.047 10
131.047 0
133.065 2
135.043 0
137.058 23
138.062 0
143.048 123
144.051 7
147.044 2
149.058 13
152.068 3
161.059 473
162.062 48
163.066 0
164.069 918
165.073 66
166.074 1
178.085 1
179.086 0
197.091 0
207.079 14
208.078 0
210.068 2
211.072 0
213.083 0
217.062 0
218.067 0
225.088 39
226.088 3
235.073 41
236.077 2
238.062 0
241.079 0
242.054 10
242.124 0
243.088 13
253.083 119
253.179 1
254.088 12
256.070 9
257.078 0
259.093 5
269.078 2
270.105 3
271.094 999
271.276 1
272.097 122
272.191 0
273.104 2
288.120 633
288.255 0
289.123 94
290.129 3

Name: 2'-Hydroxygenistein O,C-diglucoside malonylated
DB#: MSBNK-IPB_Halle-PN000030
InChI: N/A
SMILES: N/A
Precursor_type: [M-H]-
Spectrum_type: MS2
PrecursorMZ: 695.148
Instrument_type: ESI-TOF
Instrument: micrOTOF-Q
Ion_mode: NEGATIVE
Collision_energy: 25 eV
Formula: C30H32O19
MW: 696
ExactMass: 696.153778804
Comments: Parent=695.148
Splash: splash10-000j-0000900000-b9911661e105e466d253
Num Peaks: 7
285.0393 21
447.0947 680
448.1022 144
449.0958 37
489.1053 999
490.1045 214
491.1086 44

Name: o-Anisic acid
Synon: 2-methoxybenzoic acid
DB#: MSBNK-IPB_Halle-PB000624
InChIKey: ILUJQPXNXACGAN-UHFFFAOYSA-N
InChI: InChI=1S/C8H8O3/c1-11-7-5-3-2-4-6(7)8(9)10/h2-5H,1H3,(H,9,10)
SMILES: COC1=CC=CC=C1C(=O)O
Precursor_type: [M+H]+
Spectrum_type: MS2
Instrument_type: LC-ESI-QTOF
Instrument: API QSTAR Pulsar i
Ion_mode: POSITIVE
Collision_energy: 25 eV
Formula: C8H8O3
MW: 152
ExactMass: 152.04734
Comments: Parent=-1
Splash: splash10-000i-3900000000-d6fc6b20fe7614a09f5c
Num Peaks: 8
77.039 263
79.055 62
92.026 42
95.051 54
105.040 32
107.049 12
120.024 17
135.045 999

Name: Resveratrol
Synon: 5-[(E)-2-(4-hydroxyphenyl)ethenyl]benzene-1,3-diol
DB#: MSBNK-IPB_Halle-PB000642
InChIKey: LUKBXSAWLPMMSZ-OWOJBTEDSA-N
InChI: InChI=1S/C14H12O3/c15-12-5-3-10(4-6-12)1-2-11-7-13(16)9-14(17)8-11/h1-9,15-17H/b2-1+
SMILES: C1=CC(=CC=C1/C=C/C2=CC(=CC(=C2)O)O)O
Precursor_type: [M+H]+
Spectrum_type: MS2
Instrument_type: LC-ESI-QTOF
Instrument: API QSTAR Pulsar i
Ion_mode: POSITIVE
Collision_energy: 25 eV
Formula: C14H12O3
MW: 228
ExactMass: 228.07864
Comments: Parent=-1
Splash: splash10-052r-1900000000-d06e6e1c144b2d48b364
Num Peaks: 39
55.020 12
68.998 22
71.013 8
79.054 13
85.029 7
91.055 319
95.051 29
107.050 817
108.053 20
109.029 26
111.045 61
119.050 368
120.058 100
121.029 57
123.044 43
131.063 21
135.044 999
136.050 127
141.066 46
145.060 83
147.040 11
151.035 13
153.066 32
155.082 53
157.063 16
159.078 29
161.089 12
165.068 180
169.064 13
171.044 12
173.073 26
183.079 173
187.074 24
193.066 70
201.090 22
211.078 86
212.084 8
229.087 185
230.091 9

Name: Rutin
Synon: 2-(3,4-dihydroxyphenyl)-5,7-dihydroxy-3-[(2S,3R,4S,5S,6R)-3,4,5-trihydroxy-6-[[(2R,3R,4R,5R,6S)-3,4,5-trihydroxy-6-methyloxan-2-yl]oxymethyl]oxan-2-yl]oxychromen-4-one
DB#: MSBNK-IPB_Halle-PB001344
InChIKey: IKGXIBQEEMLURG-NVPNHPEKSA-N
InChI: InChI=1S/C27H30O16/c1-8-17(32)20(35)22(37)26(40-8)39-7-15-18(33)21(36)23(38)27(42-15)43-25-19(34)16-13(31)5-10(28)6-14(16)41-24(25)9-2-3-11(29)12(30)4-9/h2-6,8,15,17-18,20-23,26-33,35-38H,7H2,1H3/t8-,15+,17-,18+,20+,21-,22+,23+,26+,27-/m0/s1
SMILES: C[C@H]1[C@@H]([C@H]([C@H]([C@@H](O1)OC[C@@H]2[C@H]([C@@H]([C@H]([C@@H](O2)OC3=C(OC4=CC(=CC(=C4C3=O)O)O)C5=CC(=C(C=C5)O)O)O)O)O)O)O)O
Precursor_type: [M+H]+
Spectrum_type: MS2
Instrument_type: LC-ESI-QTOF
Instrument: API QSTAR Pulsar i
Ion_mode: POSITIVE
Collision_energy: 70 eV
Formula: C27H30O16
MW: 610
ExactMass: 610.15338
Comments: Parent=-1
Splash: splash10-0udi-0019000000-92c9eb453c2b2bb6047f
Num Peaks: 12
111.006 5
121.028 6
137.023 21
153.017 29
165.018 27
201.054 11
229.048 60
247.060 18
257.042 68
274.047 18
285.037 38
303.050 999

Name: NAD+
Synon: Nicotinamide dinucleotide
Synon: 1-[(2R,3R,4S,5R)-5-[[[[(2R,3S,4R,5R)-5-(6-aminopurin-9-yl)-3,4-dihydroxyoxolan-2-yl]methoxy-hydroxyphosphoryl]oxy-hydroxyphosphoryl]oxymethyl]-3,4-dihydroxyoxolan-2-yl]pyridin-1-ium-3-carboxylic acid
DB#: MSBNK-IPB_Halle-PB006003
InChIKey: BAWFJGJZGIEFAR-NNYOXOHSSA-O
InChI: InChI=1S/C21H27N7O14P2/c22-17-12-19(25-7-24-17)28(8-26-12)21-16(32)14(30)11(41-21)6-39-44(36,37)42-43(34,35)38-5-10-13(29)15(31)20(40-10)27-3-1-2-9(4-27)18(23)33/h1-4,7-8,10-11,13-16,20-21,29-32H,5-6H2,(H5-,22,23,24,25,33,34,35,36,37)/p+1/t10-,11-,13-,14-,15-,16-,20-,21-/m1/s1
SMILES: C1=CC(=C[N+](=C1)[C@H]2[C@@H]([C@@H]([C@H](O2)COP(=O)(O)OP(=O)(O)OC[C@@H]3[C@H]([C@H]([C@@H](O3)N4C=NC5=C(N=CN=C54)N)O)O)O)O)C(=O)N
Precursor_type: [M]+
Spectrum_type: MS2
Instrument_type: LC-ESI-QTOF
Instrument: micrOTOF-Q
Ion_mode: POSITIVE
Collision_energy: 20 eV
Formula: [C21H28N7O14P2]+
MW: 664
ExactMass: 664.11695
Comments: Parent=-1
Splash: splash10-004i-0020950000-d74b870e54380d36f493
Num Peaks: 42
123.052 0
136.060 111
137.062 4
193.048 0
232.080 265
233.082 28
234.086 0
250.091 19
251.095 0
312.045 2
328.099 0
330.056 6
331.059 0
335.059 1
348.066 53
349.067 4
370.988 4
388.999 0
410.021 6
415.030 0
426.070 0
427.655 0
428.031 999
428.212 0
428.486 0
428.785 0
429.034 118
430.035 16
444.086 40
445.086 6
446.100 0
524.052 401
525.056 66
526.056 10
529.050 0
542.062 198
543.064 33
544.067 6
664.109 30
664.303 0
665.107 7
666.108 0

Name: Scoparin
Synon: Chrysoeriol 8-C-glucoside
Synon: 8-beta-D-Glucopyranosyl-5,7-dihydroxy-2-(4-hydroxy-3-methoxyphenyl)-4H-1-benzopyran-4-one
Synon: 8-C-beta-D-Glucopyranosylchrysoeriol
DB#: MSBNK-IPB_Halle-PN000016
InChIKey: YXHFXGHAELQJGK-PGPONNFDSA-N
InChI: InChI=1S/C22H22O11/c1-31-14-4-8(2-3-9(14)24)13-6-12(27)16-10(25)5-11(26)17(21(16)32-13)22-20(30)19(29)18(28)15(7-23)33-22/h2-6,15,18-20,22-26,28-30H,7H2,1H3/t15-,18-,19+,20-,22+/m1/s1
SMILES: COC1=C(C=CC(=C1)C2=CC(=O)C3=C(O2)C(=C(C=C3O)O)[C@H]4[C@@H]([C@H]([C@@H]([C@H](O4)CO)O)O)O)O
Precursor_type: [M+H]+
Spectrum_type: MS2
PrecursorMZ: 463.125
Instrument_type: ESI-TOF
Instrument: micrOTOF-Q
Ion_mode: POSITIVE
Collision_energy: 15 eV
Formula: C22H22O11
MW: 462
ExactMass: 462.116211524
Comments: Parent=463.125
Splash: splash10-002b-0003900000-423192baa65d1fc9ca34
Num Peaks: 30
313.0706 43
325.0714 11
343.0835 259
344.0892 52
345.0891 8
353.0988 45
355.0845 20
367.0830 225
368.0855 43
373.0953 136
374.0994 20
379.0839 16
381.1029 83
382.1034 23
385.0964 41
397.0956 258
398.1012 52
399.1004 18
409.0939 204
410.0969 41
411.1090 9
427.1053 999
428.1115 139
429.1129 22
445.1166 999
446.1180 181
447.1299 41
463.1264 634
464.1315 101
465.1357 25

Name: Codeine
Synon: 7,8-Didehydro-4,5-epoxy-3-methoxy-17-methyl-(5,6)-morphinan-6-ol
DB#: MSBNK-IPB_Halle-PB001607
InChIKey: OROGSEYTTFOCAN-DNJOTXNNSA-N
InChI: InChI=1S/C18H21NO3/c1-19-8-7-18-11-4-5-13(20)17(18)22-16-14(21-2)6-3-10(15(16)18)9-12(11)19/h3-6,11-13,17,20H,7-9H2,1-2H3/t11-,12+,13-,17-,18-/m0/s1
SMILES: CN1CC[C@]23[C@@H]4[C@H]1CC5=C2C(=C(C=C5)OC)O[C@H]3[C@H](C=C4)O
Precursor_type: [M+H]+
Spectrum_type: MS2
Instrument_type: LC-ESI-QQ
Instrument: TSQ 7000
Ion_mode: POSITIVE
Collision_energy: 38 eV
Formula: C18H21NO3
MW: 299
ExactMass: 299.15214
Comments: Parent=-1
Splash: splash10-0lea-1940000000-b491506c23f09adaee8c
Num Peaks: 209
29.000 2
30.000 29
31.000 12
32.000 5
33.000 0
41.000 5
42.000 12
43.000 27
44.000 328
45.000 18
46.000 1
53.000 1
55.000 96
56.000 25
57.000 88
58.000 485
59.000 4
60.000 3
65.000 0
67.000 24
68.000 1
69.000 26
70.000 6
71.000 17
72.000 0
77.000 17
79.000 16
80.000 2
81.000 20
82.000 2
83.000 24
84.000 2
85.000 0
86.000 0
91.000 36
92.000 1
93.000 21
94.000 10
95.000 12
96.000 3
97.000 12
98.000 1
103.000 15
104.000 0
105.000 10
106.000 0
107.000 16
108.000 8
109.000 2
110.000 2
112.000 0
115.000 48
116.000 9
117.000 15
118.000 3
119.000 6
120.000 3
121.000 53
122.000 11
123.000 2
124.000 2
127.000 28
128.000 52
129.000 53
130.000 4
131.000 45
132.000 23
133.000 7
134.000 8
135.000 6
136.000 3
137.000 156
138.000 8
139.000 3
140.000 1
141.000 164
142.000 14
143.000 46
144.000 208
145.000 40
146.000 40
147.000 22
148.000 11
149.000 15
150.000 5
151.000 14
152.000 65
153.000 368
154.000 65
155.000 539
156.000 105
157.000 63
158.000 143
159.000 250
160.000 31
161.000 393
162.000 25
163.000 16
164.000 30
165.000 999
166.000 86
167.000 87
168.000 174
169.000 78
170.000 54
171.000 483
172.000 202
173.000 54
174.000 68
175.000 106
176.000 18
177.000 49
178.000 91
179.000 94
180.000 39
181.000 527
182.000 162
183.000 627
184.000 101
185.000 220
186.000 112
187.000 368
188.000 21
189.000 40
190.000 59
191.000 157
192.000 40
193.000 293
194.000 341
195.000 90
196.000 25
197.000 181
198.000 190
199.000 902
200.000 157
201.000 119
202.000 38
203.000 41
204.000 6
205.000 32
206.000 17
207.000 74
208.000 78
209.000 228
210.000 182
211.000 122
212.000 144
213.000 212
214.000 39
215.000 564
216.000 46
217.000 3
218.000 26
219.000 83
220.000 88
221.000 116
222.000 29
223.000 240
224.000 42
225.000 503
226.000 54
227.000 35
228.000 41
229.000 10
230.000 6
231.000 1
232.000 3
233.000 5
234.000 13
235.000 27
236.000 77
237.000 28
238.000 43
239.000 48
240.000 17
241.000 229
242.000 17
243.000 162
244.000 11
246.000 0
248.000 29
249.000 10
250.000 56
251.000 53
252.000 39
253.000 23
254.000 17
255.000 0
256.000 5
257.000 4
264.000 3
265.000 4
266.000 168
267.000 49
268.000 9
269.000 8
270.000 2
272.000 1
280.000 1
281.000 0
282.000 38
283.000 3
284.000 1
285.000 18
286.000 0
298.000 2
299.000 5
300.000 935
301.000 89

Name: Apigenin 7-O-glucosylglucoside
DB#: MSBNK-IPB_Halle-PN000055
InChIKey: YONLJLRPNAUKHY-MDQCKWPLSA-N
InChI: InChI=1S/C27H30O15/c28-8-17-20(33)21(34)23(36)27(40-17)42-25-18(9-29)41-26(24(37)22(25)35)38-12-5-13(31)19-14(32)7-15(39-16(19)6-12)10-1-3-11(30)4-2-10/h1-7,17-18,20-31,33-37H,8-9H2/t17-,18-,20-,21+,22-,23-,24-,25-,26?,27?/m0/s1
SMILES: C1=CC(=CC=C1C2=CC(=O)C3=C(C=C(C=C3O2)OC4[C@H]([C@@H]([C@H]([C@@H](O4)CO)OC5[C@H]([C@@H]([C@H]([C@@H](O5)CO)O)O)O)O)O)O)O
Precursor_type: [M-H]-
Spectrum_type: MS2
PrecursorMZ: 593.151
Instrument_type: ESI-TOF
Instrument: micrOTOF-Q
Ion_mode: NEGATIVE
Collision_energy: 25 eV
Formula: C27H30O15
MW: 594
ExactMass: 594.1584702600001
Comments: Parent=593.151
Splash: splash10-00kf-0080090000-04817ba00680801f630a
Num Peaks: 2
269.0434 910
593.1509 999

Name: Biochanin A glucosylglucoside dimalonylated
DB#: MSBNK-IPB_Halle-PN000096
InChI: N/A
SMILES: N/A
Precursor_type: [M+H]+
Spectrum_type: MS2
PrecursorMZ: 781.549
Instrument_type: ESI-TOF
Instrument: micrOTOF-Q
Ion_mode: POSITIVE
Collision_energy: 15 eV
Formula: C34H36O21
MW: 780
ExactMass: 780.174908172
Comments: Parent=781.549
Splash: splash10-001i-0000000900-e7f465ab2bffbb0815fb
Num Peaks: 30
127.0422 1
231.0481 1
273.0591 1
285.0754 89
286.0790 10
287.0853 1
443.0812 1
447.1388 1
461.0970 1
489.1465 1
515.1179 1
533.1321 45
534.1343 9
535.1337 2
651.1978 1
695.1829 57
696.1876 15
697.1864 3
698.1899 1
737.1943 11
738.1978 3
739.2018 1
763.1735 7
764.1699 2
765.1863 1
781.1847 999
782.1874 288
783.1874 60
784.1946 5
785.1934 1

Name: Catechin
Synon: (2R,3S)-2-(3,4-dihydroxyphenyl)chroman-3,5,7-triol
DB#: MSBNK-IPB_Halle-PB002431
InChIKey: PFTAWBLQPZVEMU-DZGCQCFKSA-N
InChI: InChI=1S/C15H14O6/c16-8-4-11(18)9-6-13(20)15(21-14(9)5-8)7-1-2-10(17)12(19)3-7/h1-5,13,15-20H,6H2/t13-,15+/m0/s1
SMILES: C1[C@@H]([C@H](OC2=CC(=CC(=C21)O)O)C3=CC(=C(C=C3)O)O)O
Precursor_type: [M-H]-
Spectrum_type: MS2
Instrument_type: LC-ESI-QTOF
Instrument: API QSTAR Pulsar i
Ion_mode: NEGATIVE
Collision_energy: 40 eV
Formula: C15H14O6
MW: 290
ExactMass: 290.07904
Comments: Parent=-1
Splash: splash10-05fr-1900000000-3424d3d2af180d7eabd3
Num Peaks: 65
55.019 9
57.034 101
69.033 20
80.023 10
81.031 58
83.010 76
93.033 64
95.047 127
97.028 206
99.045 16
105.036 28
107.051 22
108.022 90
109.030 999
111.045 14
113.061 8
117.034 28
119.049 10
120.020 9
121.028 180
122.036 145
123.043 897
124.014 9
125.022 343
131.048 16
133.028 25
135.044 95
137.024 265
138.031 55
139.040 126
143.049 14
145.029 86
146.038 62
147.045 29
149.024 121
150.031 86
151.039 237
157.066 26
158.038 17
159.045 147
160.053 75
161.060 132
162.032 46
163.040 51
164.012 116
165.018 46
167.035 14
173.058 69
174.032 25
175.070 96
177.052 27
179.032 14
183.044 10
184.049 9
185.056 36
187.036 107
188.043 82
199.068 19
201.050 49
202.057 41
203.064 139
205.045 45
212.044 21
221.078 75
227.070 18

Name: Indole-3-carboxylic acid
Synon: 1H-indole-3-carboxylic acid
DB#: MSBNK-IPB_Halle-PB005786
InChIKey: KMAKOBLIOCQGJP-UHFFFAOYSA-N
InChI: InChI=1S/C9H7NO2/c11-9(12)7-5-10-8-4-2-1-3-6(7)8/h1-5,10H,(H,11,12)
SMILES: C1=CC=C2C(=C1)C(=CN2)C(=O)O
Precursor_type: [M+H]+
Spectrum_type: MS2
Instrument_type: LC-ESI-QTOF
Instrument: micrOTOF-Q
Ion_mode: POSITIVE
Collision_energy: 15 eV
Formula: C9H7NO2
MW: 161
ExactMass: 161.04768
Comments: Parent=-1
Splash: splash10-014l-0900000000-a2251627ca78c6acb131
Num Peaks: 15
116.047 390
117.055 209
118.063 618
119.067 52
120.070 0
132.038 0
134.058 9
144.042 999
144.120 1
144.370 0
145.046 94
146.047 3
162.052 337
163.055 30
164.063 0

Name: Sinapoylcholine
Synon: 2-[(E)-3-(4-hydroxy-3,5-dimethoxyphenyl)prop-2-enoyl]oxyethyl-trimethylazanium
DB#: MSBNK-IPB_Halle-PB000385
InChIKey: HUJXHFRXWWGYQH-UHFFFAOYSA-O
InChI: InChI=1S/C16H23NO5/c1-17(2,3)8-9-22-15(18)7-6-12-10-13(20-4)16(19)14(11-12)21-5/h6-7,10-11H,8-9H2,1-5H3/p+1
SMILES: C[N+](C)(C)CCOC(=O)C=CC1=CC(=C(C(=C1)OC)O)OC
Precursor_type: [M]+
Spectrum_type: MS2
Instrument_type: LC-ESI-QTOF
Instrument: API QSTAR Pulsar i
Ion_mode: POSITIVE
Collision_energy: 25 eV
Formula: [C16H24NO5]+
MW: 310
ExactMass: 310.16545
Comments: Parent=-1
Splash: splash10-0udi-0090000000-689b623cad4015ad4305
Num Peaks: 3
175.040 21
207.067 26
251.092 999

Name: Caffeoylcholine
Synon: 2-[(E)-3-(3,4-dihydroxyphenyl)prop-2-enoyl]oxyethyl-trimethylazanium
DB#: MSBNK-IPB_Halle-PB000320
InChIKey: HLGBXKIGYXVIFU-UHFFFAOYSA-O
InChI: InChI=1S/C14H19NO4/c1-15(2,3)8-9-19-14(18)7-5-11-4-6-12(16)13(17)10-11/h4-7,10H,8-9H2,1-3H3,(H-,16,17,18)/p+1
SMILES: C[N+](C)(C)CCOC(=O)C=CC1=CC(=C(C=C1)O)O
Precursor_type: [M]+
Spectrum_type: MS2
Instrument_type: LC-ESI-QTOF
Instrument: API QSTAR Pulsar i
Ion_mode: POSITIVE
Collision_energy: 40 eV
Formula: [C14H20NO4]+
MW: 266
ExactMass: 266.13923
Comments: Parent=-1
Splash: splash10-03di-0910000000-ed1ee4e29e3fb21df068
Num Peaks: 8
107.049 19
117.033 170
130.064 9
135.044 316
145.029 353
147.013 24
163.041 999
207.066 239

Name: (+/-) Salsolinol
Synon: 1-methyl-1,2,3,4-tetrahydroisoquinoline-6,7-diol
DB#: MSBNK-IPB_Halle-PB006043
InChIKey: IBRKLUSXDYATLG-UHFFFAOYSA-N
InChI: InChI=1S/C10H13NO2/c1-6-8-5-10(13)9(12)4-7(8)2-3-11-6/h4-6,11-13H,2-3H2,1H3
SMILES: CC1C2=CC(=C(C=C2CCN1)O)O
Precursor_type: [M+H]+
Spectrum_type: MS2
Instrument_type: LC-ESI-QTOF
Instrument: micrOTOF-Q
Ion_mode: POSITIVE
Collision_energy: 30 eV
Formula: C10H13NO2
MW: 179
ExactMass: 179.09463
Comments: Parent=-1
Splash: splash10-014i-0900000000-fd496b1ca2ec080ac77b
Num Peaks: 38
102.042 0
113.038 0
114.045 1
115.052 999
116.058 134
117.068 157
118.069 17
119.053 2
119.071 0
120.054 3
122.059 2
123.042 60
124.047 7
125.038 0
126.045 30
127.053 97
128.058 13
130.040 25
131.049 6
132.043 10
133.060 26
134.040 33
135.043 3
135.077 10
136.047 14
137.056 5
143.059 1
144.056 11
145.063 164
145.140 0
146.065 18
147.044 3
148.050 15
150.054 13
151.064 35
152.074 2
161.057 0
163.075 6

Name: Apigenin
Synon: 4',5,7-Trihydroxyflavone
Synon: Spigenin
DB#: MSBNK-IPB_Halle-PN000009
InChIKey: KZNIFHPLKGYRTM-UHFFFAOYSA-N
InChI: InChI=1S/C15H10O5/c16-9-3-1-8(2-4-9)13-7-12(19)15-11(18)5-10(17)6-14(15)20-13/h1-7,16-18H
SMILES: OC=1C=CC(=CC=1)C2=CC(=O)C3=C(O)C=C(O)C=C3(O2)
Precursor_type: [M-H]-
Spectrum_type: MS2
PrecursorMZ: 269.042
Instrument_type: ESI-TOF
Instrument: micrOTOF-Q
Ion_mode: NEGATIVE
Collision_energy: 25 eV
Formula: C15H10O5
MW: 270
ExactMass: 270.05282342
Comments: Parent=269.042
Splash: splash10-014i-0900000000-4514238d7b7c4f7798eb
Num Peaks: 10
105.032 16
107.010 69
117.032 999
118.036 97
121.026 58
149.023 35
151.001 57
159.042 45
183.043 22
227.031 23

Name: Benzoylcholine
Synon: 2-(benzoyloxy)ethyl-trimethylazanium
DB#: MSBNK-IPB_Halle-PB000311
InChIKey: HOPVGFKDVOOCHD-UHFFFAOYSA-N
InChI: InChI=1S/C12H18NO2/c1-13(2,3)9-10-15-12(14)11-7-5-4-6-8-11/h4-8H,9-10H2,1-3H3/q+1
SMILES: C[N+](C)(C)CCOC(=O)C1=CC=CC=C1
Precursor_type: [M]+
Spectrum_type: MS2
Instrument_type: LC-ESI-QTOF
Instrument: API QSTAR Pulsar i
Ion_mode: POSITIVE
Collision_energy: 25 eV
Formula: [C12H18NO2]+
MW: 208
ExactMass: 208.13375
Comments: Parent=-1
Splash: splash10-0002-0900000000-deca02733cc63c767461
Num Peaks: 2
105.033 248
149.059 999

Name: Biochanin A O-glucoside malonylated
DB#: MSBNK-IPB_Halle-PN000085
InChI: N/A
SMILES: N/A
Precursor_type: [M+H]+
Spectrum_type: MS2
PrecursorMZ: 533.134
Instrument_type: ESI-TOF
Instrument: micrOTOF-Q
Ion_mode: POSITIVE
Collision_energy: 15 eV
Formula: C25H24O13
MW: 532
ExactMass: 532.1216908279999
Comments: Parent=533.134
Splash: splash10-000i-0090000000-0f88b78d9b4af831e79a
Num Peaks: 10
285.077 999
286.081 101
287.087 11
447.133 33
448.138 5
489.149 3
515.129 6
533.132 63
534.135 18
535.138 5

Name: Luteolin
Synon: 5,7,3',4'-tetrahydroxy-flavone
DB#: MSBNK-IPB_Halle-PB000743
InChIKey: IQPNAANSBPBGFQ-UHFFFAOYSA-N
InChI: InChI=1S/C15H10O6/c16-8-4-11(19)15-12(20)6-13(21-14(15)5-8)7-1-2-9(17)10(18)3-7/h1-6,16-19H
SMILES: C1=CC(=C(C=C1C2=CC(=O)C3=C(C=C(C=C3O2)O)O)O)O
Precursor_type: [M+H]+
Spectrum_type: MS2
Instrument_type: LC-ESI-QTOF
Instrument: API QSTAR Pulsar i
Ion_mode: POSITIVE
Collision_energy: 40 eV
Formula: C15H10O6
MW: 286
ExactMass: 286.04774
Comments: Parent=-1
Splash: splash10-0f79-0980000000-e245bb6cbc97af71cd5e
Num Peaks: 25
67.018 24
68.996 18
89.038 15
107.048 11
111.007 22
117.032 55
125.020 9
135.043 239
137.023 72
139.054 11
153.018 772
154.022 16
157.065 13
161.026 89
171.042 21
179.039 34
185.065 20
203.040 14
213.059 31
231.067 10
241.054 112
245.049 15
269.048 47
287.055 999
288.060 50

Name: Luteolin
Synon: 5,7,3',4'-tetrahydroxy-flavone
DB#: MSBNK-IPB_Halle-PB000741
InChIKey: IQPNAANSBPBGFQ-UHFFFAOYSA-N
InChI: InChI=1S/C15H10O6/c16-8-4-11(19)15-12(20)6-13(21-14(15)5-8)7-1-2-9(17)10(18)3-7/h1-6,16-19H
SMILES: C1=CC(=C(C=C1C2=CC(=O)C3=C(C=C(C=C3O2)O)O)O)O
Precursor_type: [M+H]+
Spectrum_type: MS2
Instrument_type: LC-ESI-QTOF
Instrument: API QSTAR Pulsar i
Ion_mode: POSITIVE
Collision_energy: 15 eV
Formula: C15H10O6
MW: 286
ExactMass: 286.04774
Comments: Parent=-1
Splash: splash10-000i-0090000000-4069630b164c0619cb91
Num Peaks: 2
287.056 999
288.062 32

Name: Nicotinoylcholine
Synon: trimethyl-[2-(pyridine-3-carbonyloxy)ethyl]azanium
DB#: MSBNK-IPB_Halle-PB000346
InChIKey: ZMPGJEYFRZCHQC-UHFFFAOYSA-N
InChI: InChI=1S/C11H17N2O2/c1-13(2,3)7-8-15-11(14)10-5-4-6-12-9-10/h4-6,9H,7-8H2,1-3H3/q+1
SMILES: C[N+](C)(C)CCOC(=O)C1=CN=CC=C1
Precursor_type: [M]+
Spectrum_type: MS2
Instrument_type: LC-ESI-QTOF
Instrument: API QSTAR Pulsar i
Ion_mode: POSITIVE
Collision_energy: 55 eV
Formula: [C11H17N2O2]+
MW: 209
ExactMass: 209.12900
Comments: Parent=-1
Splash: splash10-004i-9300000000-c7ebc3aaeb3036141461
Num Peaks: 2
78.034 999
106.029 389

Name: Genistein xylosylglucoside malonylated
DB#: MSBNK-IPB_Halle-PN000082
InChI: N/A
SMILES: N/A
Precursor_type: [M+H]+
Spectrum_type: MS2
PrecursorMZ: 651.15
Instrument_type: ESI-TOF
Instrument: micrOTOF-Q
Ion_mode: POSITIVE
Collision_energy: 15 eV
Formula: C29H30O17
MW: 650
ExactMass: 650.1482995
Comments: Parent=651.15
Splash: splash10-00di-0090022000-7183138bdefe285a73f1
Num Peaks: 6
271.0584 999
272.0597 120
519.1075 292
520.1124 72
651.1561 284
652.1510 88

Name: Choline
Synon: 2-hydroxyethyl-trimethylazanium
DB#: MSBNK-IPB_Halle-PB001602
InChIKey: OEYIOHPDSNJKLS-UHFFFAOYSA-N
InChI: InChI=1S/C5H14NO/c1-6(2,3)4-5-7/h7H,4-5H2,1-3H3/q+1
SMILES: C[N+](C)(C)CCO
Precursor_type: [M]+
Spectrum_type: MS2
Instrument_type: LC-ESI-QQ
Instrument: TSQ 7000
Ion_mode: POSITIVE
Collision_energy: 20 eV
Formula: [C5H14NO]+
MW: 104
ExactMass: 104.10754
Comments: Parent=-1
Splash: splash10-0w29-5900000000-9b79cc5ff3b1ce17deb1
Num Peaks: 7
58.000 51
59.000 40
60.000 566
86.000 0
88.000 0
103.000 2
104.000 999

Name: Genistein C,O-diglucoside
DB#: MSBNK-IPB_Halle-PN000054
InChI: N/A
SMILES: N/A
Precursor_type: [M-H]-
Spectrum_type: MS2
PrecursorMZ: 593.151
Instrument_type: ESI-TOF
Instrument: micrOTOF-Q
Ion_mode: NEGATIVE
Collision_energy: 25 eV
Formula: C27H30O15
MW: 594
ExactMass: 594.1584702600001
Comments: Parent=593.151
Splash: splash10-0089-0000900000-d17afe80dd92f606ce29
Num Peaks: 6
311.0558 120
431.1007 999
432.1035 241
473.1071 980
474.1164 222
593.1591 92

Name: 4-Hydroxybenzoylcholine
Synon: 2-(4-hydroxybenzoyl)oxyethyl-trimethylazanium
DB#: MSBNK-IPB_Halle-PB000309
InChIKey: BAPAICNRGIBFJT-UHFFFAOYSA-O
InChI: InChI=1S/C12H17NO3/c1-13(2,3)8-9-16-12(15)10-4-6-11(14)7-5-10/h4-7H,8-9H2,1-3H3/p+1
SMILES: C[N+](C)(C)CCOC(=O)C1=CC=C(C=C1)O
Precursor_type: [M]+
Spectrum_type: MS2
Instrument_type: LC-ESI-QTOF
Instrument: API QSTAR Pulsar i
Ion_mode: POSITIVE
Collision_energy: 55 eV
Formula: [C12H18NO3]+
MW: 224
ExactMass: 224.12867
Comments: Parent=-1
Splash: splash10-00di-7900000000-948cf79f530574c15b5a
Num Peaks: 3
65.038 464
93.033 361
121.031 999

Name: Safranin
Synon: 3,7-dimethyl-10-phenylphenazin-10-ium-2,8-diamine
DB#: MSBNK-IPB_Halle-PB005981
InChIKey: WULISCVZERSMML-UHFFFAOYSA-O
InChI: InChI=1S/C20H18N4/c1-12-8-17-19(10-15(12)21)24(14-6-4-3-5-7-14)20-11-16(22)13(2)9-18(20)23-17/h3-11H,1-2H3,(H3,21,22)/p+1
SMILES: CC1=CC2=C(C=C1N)[N+](=C3C=C(C(=CC3=N2)C)N)C4=CC=CC=C4
Precursor_type: [M]+
Spectrum_type: MS2
Instrument_type: LC-ESI-QTOF
Instrument: micrOTOF-Q
Ion_mode: POSITIVE
Collision_energy: 25 eV
Formula: [C20H19N4]+
MW: 315
ExactMass: 315.16097
Comments: Parent=-1
Splash: splash10-014i-0009000000-1f3955e1e5f08c84321d
Num Peaks: 26
210.099 0
223.097 1
237.110 2
238.118 18
239.121 1
273.121 2
274.128 1
280.095 0
281.101 0
283.106 0
284.112 1
285.109 0
286.127 0
287.135 0
288.145 3
297.120 2
298.128 9
299.125 22
300.131 14
301.133 1
313.139 1
314.147 4
314.937 0
315.156 999
316.159 171
317.161 1

Name: Genistein C-glucoside malonylated
DB#: MSBNK-IPB_Halle-PN000040
InChI: N/A
SMILES: N/A
Precursor_type: [M+H]+
Spectrum_type: MS2
PrecursorMZ: 519.118
Instrument_type: ESI-TOF
Instrument: micrOTOF-Q
Ion_mode: POSITIVE
Collision_energy: 15 eV
Formula: C24H22O13
MW: 518
ExactMass: 518.106040764
Comments: Parent=519.118
Splash: splash10-014j-0008290000-54f4620af42519ec0167
Num Peaks: 38
273.0746 7
283.0597 23
295.0627 20
313.0706 71
314.0762 7
337.0687 12
349.0751 17
351.0904 37
361.0732 12
367.0846 165
368.0806 36
369.0932 16
379.0822 196
380.0885 41
381.0894 7
397.0941 696
398.0981 89
399.1009 21
415.1046 61
416.1114 13
423.0729 19
433.1139 13
439.1057 40
440.1206 9
453.0742 7
457.1156 110
458.1199 27
459.1141 7
475.1278 47
476.1295 11
483.1006 21
484.1057 7
501.1047 285
502.1094 61
503.1218 12
519.1148 999
520.1192 149
521.1199 42

Name: 7,4'-Dihydroxyflavone
Synon: 4H-1-Benzopyran-4-one, 7-hydroxy-2-(4-hydroxyphenyl)
Synon: 7-Hydroxy-2-(4-hydroxyphenyl)-4H-chromen-4-one
DB#: MSBNK-IPB_Halle-PN000118
InChIKey: LCAWNFIFMLXZPQ-UHFFFAOYSA-N
InChI: InChI=1S/C15H10O4/c16-10-3-1-9(2-4-10)14-8-13(18)12-6-5-11(17)7-15(12)19-14/h1-8,16-17H
SMILES: OC=1C=CC(=CC=1)C2=CC(=O)C3=CC=C(O)C=C3(O2)
Precursor_type: [M-H]-
Spectrum_type: MS2
PrecursorMZ: 253.05
Instrument_type: ESI-TOF
Instrument: micrOTOF-Q
Ion_mode: NEGATIVE
Collision_energy: 25 eV
Formula: C15H10O4
MW: 254
ExactMass: 254.0579088
Comments: Parent=253.05
Splash: splash10-014i-0900000000-5c5bd4a2b8a8c4715112
Num Peaks: 11
89.034 13
91.016 65
117.033 999
118.036 69
132.020 25
133.028 41
135.007 32
180.060 26
195.045 19
223.044 42
224.046 24

Name: Ononin
Synon: 3-(4-methoxyphenyl)-7-[(2S,3R,4S,5S,6R)-3,4,5-trihydroxy-6-(hydroxymethyl)oxan-2-yl]oxychromen-4-one
DB#: MSBNK-IPB_Halle-PB000745
InChIKey: MGJLSBDCWOSMHL-MIUGBVLSSA-N
InChI: InChI=1S/C22H22O9/c1-28-12-4-2-11(3-5-12)15-10-29-16-8-13(6-7-14(16)18(15)24)30-22-21(27)20(26)19(25)17(9-23)31-22/h2-8,10,17,19-23,25-27H,9H2,1H3/t17-,19-,20+,21-,22-/m1/s1
SMILES: COC1=CC=C(C=C1)C2=COC3=C(C2=O)C=CC(=C3)O[C@H]4[C@@H]([C@H]([C@@H]([C@H](O4)CO)O)O)O
Precursor_type: [M+H]+
Spectrum_type: MS2
Instrument_type: LC-ESI-QTOF
Instrument: API QSTAR Pulsar i
Ion_mode: POSITIVE
Collision_energy: 15 eV
Formula: C22H22O9
MW: 430
ExactMass: 430.12638
Comments: Parent=-1
Splash: splash10-0159-0090600000-0bd2d7a22643c7b7e7d8
Num Peaks: 2
269.081 999
431.134 690

Name: Resveratrol
Synon: 5-[(E)-2-(4-hydroxyphenyl)ethenyl]benzene-1,3-diol
DB#: MSBNK-IPB_Halle-PB003661
InChIKey: LUKBXSAWLPMMSZ-OWOJBTEDSA-N
InChI: InChI=1S/C14H12O3/c15-12-5-3-10(4-6-12)1-2-11-7-13(16)9-14(17)8-11/h1-9,15-17H/b2-1+
SMILES: C1=CC(=CC=C1/C=C/C2=CC(=CC(=C2)O)O)O
Precursor_type: [M-H]-
Spectrum_type: MS2
Instrument_type: LC-ESI-QQ
Instrument: TSQ QUANTUM AM
Ion_mode: NEGATIVE
Collision_energy: 20 eV
Formula: C14H12O3
MW: 228
ExactMass: 228.07864
Comments: Parent=-1
Splash: splash10-004r-0950000000-8e44b9aa58ac75282058
Num Peaks: 31
107.000 0
115.000 2
116.000 0
117.000 8
119.000 12
141.000 41
143.000 375
145.000 20
155.000 1
156.000 2
157.000 76
159.000 117
161.000 1
165.000 3
167.000 5
168.000 5
170.000 2
180.000 0
181.000 36
182.000 56
183.000 174
184.000 7
185.000 768
197.000 0
199.000 3
209.000 8
211.000 0
212.000 18
225.000 28
226.000 2
227.000 999

Name: Leucine
Synon: 2-amino-4-methylpentanoic acid
DB#: MSBNK-IPB_Halle-PB000392
InChIKey: ROHFNLRQFUQHCH-UHFFFAOYSA-N
InChI: InChI=1S/C6H13NO2/c1-4(2)3-5(7)6(8)9/h4-5H,3,7H2,1-2H3,(H,8,9)
SMILES: CC(C)CC(C(=O)O)N
Precursor_type: [M+H]+
Spectrum_type: MS2
Instrument_type: LC-ESI-QTOF
Instrument: API QSTAR Pulsar i
Ion_mode: POSITIVE
Collision_energy: 15 eV
Formula: C6H13NO2
MW: 131
ExactMass: 131.09463
Comments: Parent=-1
Splash: splash10-000i-9100000000-5c9c34467c6dfc48536c
Num Peaks: 2
86.099 999
132.106 134

Name: Methoxyindoleacetic acid
Synon: 2-(5-methoxy-1H-indol-3-yl)acetic acid
DB#: MSBNK-IPB_Halle-PB000522
InChIKey: COCNDHOPIHDTHK-UHFFFAOYSA-N
InChI: InChI=1S/C11H11NO3/c1-15-8-2-3-10-9(5-8)7(6-12-10)4-11(13)14/h2-3,5-6,12H,4H2,1H3,(H,13,14)
SMILES: COC1=CC2=C(C=C1)NC=C2CC(=O)O
Precursor_type: [M+H]+
Spectrum_type: MS2
Instrument_type: LC-ESI-QTOF
Instrument: API QSTAR Pulsar i
Ion_mode: POSITIVE
Collision_energy: 50 eV
Formula: C11H11NO3
MW: 205
ExactMass: 205.07389
Comments: Parent=-1
Splash: splash10-014i-1900000000-b5ca37dc8dd19df79bca
Num Peaks: 30
45.032 4
65.038 2
75.022 4
77.037 103
78.037 4
79.052 23
89.035 45
90.044 198
91.051 27
95.048 12
101.038 10
102.046 9
103.054 149
104.050 74
105.063 18
115.052 4
116.048 36
117.057 999
118.050 137
119.043 9
128.047 17
129.045 11
130.062 33
132.041 29
133.061 100
134.061 5
144.039 4
145.049 273
146.058 34
160.075 68

Name: Spermidine
Synon: N-(3-aminopropyl)butane-1,4-diamine
DB#: MSBNK-IPB_Halle-PB000484
InChIKey: ATHGHQPFGPMSJY-UHFFFAOYSA-N
InChI: InChI=1S/C7H19N3/c8-4-1-2-6-10-7-3-5-9/h10H,1-9H2
SMILES: C(CCNCCCN)CN
Precursor_type: [M+H]+
Spectrum_type: MS2
Instrument_type: LC-ESI-QTOF
Instrument: API QSTAR Pulsar i
Ion_mode: POSITIVE
Collision_energy: 25 eV
Formula: C7H19N3
MW: 145
ExactMass: 145.15790
Comments: Parent=-1
Splash: splash10-00di-9200000000-75eacba217a63f3b8847
Num Peaks: 11
55.057 3
58.068 99
70.068 3
72.082 999
75.093 17
84.084 137
91.057 32
112.115 199
117.061 6
118.070 99
129.142 15

Name: Chelidonin
Synon: (+)-Chelidonine
Synon: [1,3]Benzodioxolo[5,6-c]-1,3-dioxolo[4,5-i]phenanthridin-6-ol, 5b,6,7,12b,13,14-hexahydro-13-methyl-, (5bR,6S,12bS)-
DB#: MSBNK-IPB_Halle-PB005901
InChIKey: GHKISGDRQRSCII-ZOCIIQOWSA-N
InChI: InChI=1S/C20H19NO5/c1-21-7-13-11(2-3-15-20(13)26-9-23-15)18-14(22)4-10-5-16-17(25-8-24-16)6-12(10)19(18)21/h2-3,5-6,14,18-19,22H,4,7-9H2,1H3/t14-,18-,19+/m0/s1
SMILES: CN1CC2=C(C=CC3=C2OCO3)[C@@H]4[C@H]1C5=CC6=C(C=C5C[C@@H]4O)OCO6
Precursor_type: [M+H]+
Spectrum_type: MS2
Instrument_type: LC-ESI-QTOF
Instrument: micrOTOF-Q
Ion_mode: POSITIVE
Collision_energy: 10 eV
Formula: C20H19NO5
MW: 353
ExactMass: 353.126323
Comments: Parent=-1
Splash: splash10-0udi-0009000000-6229b162d8c0ff44a1a3
Num Peaks: 18
247.072 4
265.081 0
275.067 49
276.070 5
293.076 0
295.093 7
296.096 0
305.077 72
306.081 9
323.087 63
324.091 8
336.120 12
337.122 1
353.866 0
354.130 999
354.568 0
355.133 160
356.134 2

Name: 2'-Hydroxygenistein O,C-diglucoside malonylated
DB#: MSBNK-IPB_Halle-PN000029
InChI: N/A
SMILES: N/A
Precursor_type: [M+H]+
Spectrum_type: MS2
PrecursorMZ: 697.164
Instrument_type: ESI-TOF
Instrument: micrOTOF-Q
Ion_mode: POSITIVE
Collision_energy: 15 eV
Formula: C30H32O19
MW: 696
ExactMass: 696.153778804
Comments: Parent=697.164
Splash: splash10-0002-0000629000-4d2f977da169cc727066
Num Peaks: 6
431.1127 164
449.1102 629
491.1233 231
535.1121 343
697.1663 999
698.1649 322

Name: Spermine
Synon: N,N'-bis(3-aminopropyl)butane-1,4-diamine
DB#: MSBNK-IPB_Halle-PB000489
InChIKey: PFNFFQXMRSDOHW-UHFFFAOYSA-N
InChI: InChI=1S/C10H26N4/c11-5-3-9-13-7-1-2-8-14-10-4-6-12/h13-14H,1-12H2
SMILES: C(CCNCCCN)CNCCCN
Precursor_type: [M+H]+
Spectrum_type: MS2
Instrument_type: LC-ESI-QTOF
Instrument: API QSTAR Pulsar i
Ion_mode: POSITIVE
Collision_energy: 35 eV
Formula: C10H26N4
MW: 202
ExactMass: 202.21575
Comments: Parent=-1
Splash: splash10-01q9-9700000000-23a9dff5cfa7893bf88a
Num Peaks: 6
58.066 173
70.066 33
72.081 93
84.081 999
112.114 996
129.139 33

Name: Dopamine
Synon: 4-(2-aminoethyl)benzene-1,2-diol
DB#: MSBNK-IPB_Halle-PB000480
InChIKey: VYFYYTLLBUKUHU-UHFFFAOYSA-N
InChI: InChI=1S/C8H11NO2/c9-4-3-6-1-2-7(10)8(11)5-6/h1-2,5,10-11H,3-4,9H2
SMILES: C1=CC(=C(C=C1CCN)O)O
Precursor_type: [M+H]+
Spectrum_type: MS2
Instrument_type: LC-ESI-QTOF
Instrument: API QSTAR Pulsar i
Ion_mode: POSITIVE
Collision_energy: 30 eV
Formula: C8H11NO2
MW: 153
ExactMass: 153.07898
Comments: Parent=-1
Splash: splash10-0006-9300000000-3a862057cf8a009ef9bd
Num Peaks: 8
65.039 59
79.055 11
81.070 19
91.054 999
94.041 4
109.065 19
119.048 273
137.059 136

Name: Luteolin 4'-O-glucoside
Synon: 4',5,7-TetrahydroxyFLAVone-4'-GLUCOSide
Synon: Luteolin-4'-O-glucoside
Synon: 3',4',5,7-TetrahydroxyFLAVone-4'-GLUCOSide
DB#: MSBNK-IPB_Halle-PN000062
InChIKey: UHNXUSWGOJMEFO-QNDFHXLGSA-N
InChI: InChI=1S/C21H20O11/c22-7-16-18(27)19(28)20(29)21(32-16)31-13-2-1-8(3-10(13)24)14-6-12(26)17-11(25)4-9(23)5-15(17)30-14/h1-6,16,18-25,27-29H,7H2/t16-,18-,19+,20-,21-/m1/s1
SMILES: C1=CC(=C(C=C1C2=CC(=O)C3=C(C=C(C=C3O2)O)O)O)O[C@H]4[C@@H]([C@H]([C@@H]([C@H](O4)CO)O)O)O
Precursor_type: [M+H]+
Spectrum_type: MS2
PrecursorMZ: 449.109
Instrument_type: ESI-TOF
Instrument: micrOTOF-Q
Ion_mode: POSITIVE
Collision_energy: 15 eV
Formula: C21H20O11
MW: 448
ExactMass: 448.10056146
Comments: Parent=449.109
Splash: splash10-000i-0090300000-f7e285f8879fa422d933
Num Peaks: 4
287.0542 999
288.0556 176
449.1108 327
450.1118 66

Name: Cysteine
Synon: 2-amino-3-sulfanylpropanoic acid
DB#: MSBNK-IPB_Halle-PB000438
InChIKey: XUJNEKJLAYXESH-UHFFFAOYSA-N
InChI: InChI=1S/C3H7NO2S/c4-2(1-7)3(5)6/h2,7H,1,4H2,(H,5,6)
SMILES: C(C(C(=O)O)N)S
Precursor_type: [M+H]+
Spectrum_type: MS2
Instrument_type: LC-ESI-QTOF
Instrument: API QSTAR Pulsar i
Ion_mode: POSITIVE
Collision_energy: 20 eV
Formula: C3H7NO2S
MW: 121
ExactMass: 121.01975
Comments: Parent=-1
Splash: splash10-056r-9000000000-77447a65a05a453318b9
Num Peaks: 7
58.997 539
70.030 5
76.023 999
86.990 295
88.041 6
105.003 169
122.029 17

Name: Naringin
Synon: (2S)-7-[(2S,3R,4S,5S,6R)-4,5-dihydroxy-6-(hydroxymethyl)-3-[(2S,3R,4R,5R,6S)-3,4,5-trihydroxy-6-methyloxan-2-yl]oxyoxan-2-yl]oxy-5-hydroxy-2-(4-hydroxyphenyl)chroman-4-one
DB#: MSBNK-IPB_Halle-PB000802
InChIKey: DFPMSGMNTNDNHN-ZPHOTFPESA-N
InChI: InChI=1S/C27H32O14/c1-10-20(32)22(34)24(36)26(37-10)41-25-23(35)21(33)18(9-28)40-27(25)38-13-6-14(30)19-15(31)8-16(39-17(19)7-13)11-2-4-12(29)5-3-11/h2-7,10,16,18,20-30,32-36H,8-9H2,1H3/t10-,16-,18+,20-,21+,22+,23-,24+,25+,26-,27+/m0/s1
SMILES: C[C@H]1[C@@H]([C@H]([C@H]([C@@H](O1)O[C@@H]2[C@H]([C@@H]([C@H](O[C@H]2OC3=CC(=C4C(=O)C[C@H](OC4=C3)C5=CC=C(C=C5)O)O)CO)O)O)O)O)O
Precursor_type: [M+H]+
Spectrum_type: MS2
Instrument_type: LC-ESI-QTOF
Instrument: API QSTAR Pulsar i
Ion_mode: POSITIVE
Collision_energy: 55 eV
Formula: C27H32O14
MW: 580
ExactMass: 580.17921
Comments: Parent=-1
Splash: splash10-0udi-1910000000-c2cc63c920f67f2f8893
Num Peaks: 14
57.035 13
71.050 97
85.031 116
119.049 14
121.064 19
123.044 9
147.044 193
153.019 999
165.023 9
171.033 35
179.038 14
195.033 27
219.030 14
273.076 239

Name: Spermidine
Synon: N-(3-aminopropyl)butane-1,4-diamine
DB#: MSBNK-IPB_Halle-PB000485
InChIKey: ATHGHQPFGPMSJY-UHFFFAOYSA-N
InChI: InChI=1S/C7H19N3/c8-4-1-2-6-10-7-3-5-9/h10H,1-9H2
SMILES: C(CCNCCCN)CN
Precursor_type: [M+H]+
Spectrum_type: MS2
Instrument_type: LC-ESI-QTOF
Instrument: API QSTAR Pulsar i
Ion_mode: POSITIVE
Collision_energy: 35 eV
Formula: C7H19N3
MW: 145
ExactMass: 145.15790
Comments: Parent=-1
Splash: splash10-00di-9000000000-8a77bd9436d55b064332
Num Peaks: 13
42.036 6
55.057 37
56.053 4
58.068 136
65.041 6
70.067 12
72.082 999
84.084 333
90.048 2
91.056 143
112.115 45
117.061 34
118.070 34

Name: N-Acetylindole
Synon: 1-indol-1-ylethanone
DB#: MSBNK-IPB_Halle-PB000492
InChIKey: UUCUQJHYUPXDHN-UHFFFAOYSA-N
InChI: InChI=1S/C10H9NO/c1-8(12)11-7-6-9-4-2-3-5-10(9)11/h2-7H,1H3
SMILES: CC(=O)N1C=CC2=CC=CC=C21
Precursor_type: [M+H]+
Spectrum_type: MS2
Instrument_type: LC-ESI-QTOF
Instrument: API QSTAR Pulsar i
Ion_mode: POSITIVE
Collision_energy: 25 eV
Formula: C10H9NO
MW: 159
ExactMass: 159.06841
Comments: Parent=-1
Splash: splash10-014i-2900000000-35f2ce18194145e05170
Num Peaks: 5
43.018 218
91.054 45
117.058 7
118.067 999
160.076 40

Name: Glutamine
Synon: 2,5-diamino-5-oxopentanoic acid
DB#: MSBNK-IPB_Halle-PB000465
InChIKey: ZDXPYRJPNDTMRX-UHFFFAOYSA-N
InChI: InChI=1S/C5H10N2O3/c6-3(5(9)10)1-2-4(7)8/h3H,1-2,6H2,(H2,7,8)(H,9,10)
SMILES: C(CC(=O)N)C(C(=O)O)N
Precursor_type: [M+H]+
Spectrum_type: MS2
Instrument_type: LC-ESI-QTOF
Instrument: API QSTAR Pulsar i
Ion_mode: POSITIVE
Collision_energy: 10 eV
Formula: C5H10N2O3
MW: 146
ExactMass: 146.06914
Comments: Parent=-1
Splash: splash10-0002-0900000000-b23fae84d55b6e369025
Num Peaks: 4
84.045 7
101.073 23
130.050 414
147.076 999

Name: Genistein C,O-diglucoside
DB#: MSBNK-IPB_Halle-PN000053
InChI: N/A
SMILES: N/A
Precursor_type: [M+H]+
Spectrum_type: MS2
PrecursorMZ: 595.168
Instrument_type: ESI-TOF
Instrument: micrOTOF-Q
Ion_mode: POSITIVE
Collision_energy: 15 eV
Formula: C27H30O15
MW: 594
ExactMass: 594.15847026
Comments: Parent=595.168
Splash: splash10-001j-0000940000-496d9c8bd181a0b53e0e
Num Peaks: 11
271.0620 44
397.0917 105
398.0958 29
415.1033 357
416.1068 65
433.1124 999
434.1172 165
435.1210 35
595.1671 705
596.1685 144
597.1751 42

Name: Daidzein
Synon: 7-hydroxy-3-(4-hydroxyphenyl)chromen-4-one
DB#: MSBNK-IPB_Halle-PB002428
InChIKey: ZQSIJRDFPHDXIC-UHFFFAOYSA-N
InChI: InChI=1S/C15H10O4/c16-10-3-1-9(2-4-10)13-8-19-14-7-11(17)5-6-12(14)15(13)18/h1-8,16-17H
SMILES: C1=CC(=CC=C1C2=COC3=C(C2=O)C=CC(=C3)O)O
Precursor_type: [M-H]-
Spectrum_type: MS2
Instrument_type: LC-ESI-QTOF
Instrument: API QSTAR Pulsar i
Ion_mode: NEGATIVE
Collision_energy: 55 eV
Formula: C15H10O4
MW: 254
ExactMass: 254.05791
Comments: Parent=-1
Splash: splash10-001i-2920000000-fac216a92b3fa4914a04
Num Peaks: 39
63.052 19
65.032 76
67.047 11
77.066 14
89.064 47
91.043 532
92.051 12
93.059 10
95.072 11
104.055 156
105.063 9
107.042 14
116.052 28
117.060 87
127.077 8
129.058 14
130.064 12
132.043 999
133.051 297
135.030 81
141.060 30
143.073 16
152.085 14
153.044 13
154.063 40
155.071 22
167.068 160
168.073 16
169.081 46
180.069 214
182.049 38
183.055 12
195.052 667
196.057 52
197.064 15
208.058 268
223.045 567
224.053 49
251.037 23

Name: 1-methoxyindole-3-carbaldehyde
DB#: MSBNK-IPB_Halle-PB000533
InChIKey: NFGIENSPALNOON-UHFFFAOYSA-N
InChI: InChI=1S/C10H9NO2/c1-13-11-6-8(7-12)9-4-2-3-5-10(9)11/h2-7H,1H3
SMILES: CON1C=C(C2=CC=CC=C21)C=O
Precursor_type: [M+H]+
Spectrum_type: MS2
PrecursorMZ: 176.07115
Instrument_type: LC-ESI-QTOF
Instrument: API QSTAR Pulsar i
Ion_mode: POSITIVE
Collision_energy: 40 eV
Formula: C10H9NO2
MW: 175
ExactMass: 175.06333
Comments: Parent=176.07115
Splash: splash10-0uy3-4900000000-8fc57bab085f33de16c3
Num Peaks: 8
89.038 555
90.046 459
104.049 999
105.057 149
116.050 282
117.057 460
132.043 101
144.045 163

Name: Glutamine
Synon: 2,5-diamino-5-oxopentanoic acid
DB#: MSBNK-IPB_Halle-PB000466
InChIKey: ZDXPYRJPNDTMRX-UHFFFAOYSA-N
InChI: InChI=1S/C5H10N2O3/c6-3(5(9)10)1-2-4(7)8/h3H,1-2,6H2,(H2,7,8)(H,9,10)
SMILES: C(CC(=O)N)C(C(=O)O)N
Precursor_type: [M+H]+
Spectrum_type: MS2
Instrument_type: LC-ESI-QTOF
Instrument: API QSTAR Pulsar i
Ion_mode: POSITIVE
Collision_energy: 15 eV
Formula: C5H10N2O3
MW: 146
ExactMass: 146.06914
Comments: Parent=-1
Splash: splash10-001i-1900000000-bcd621cce42fa3f4aecf
Num Peaks: 5
84.045 276
101.073 84
102.058 13
130.050 999
147.078 258

Name: Serotonin
Synon: 3-(2-aminoethyl)-1H-indol-5-ol
DB#: MSBNK-IPB_Halle-PB001420
InChIKey: QZAYGJVTTNCVMB-UHFFFAOYSA-N
InChI: InChI=1S/C10H12N2O/c11-4-3-7-6-12-10-2-1-8(13)5-9(7)10/h1-2,5-6,12-13H,3-4,11H2
SMILES: C1=CC2=C(C=C1O)C(=CN2)CCN
Precursor_type: [M+H]+
Spectrum_type: MS2
Instrument_type: LC-ESI-QTOF
Instrument: API QSTAR Pulsar i
Ion_mode: POSITIVE
Collision_energy: 55 eV
Formula: C10H12N2O
MW: 176
ExactMass: 176.09496
Comments: Parent=-1
Splash: splash10-00p0-9400000000-7e4063d2b516ae59df84
Num Peaks: 69
39.021 48
41.031 21
42.034 7
43.016 16
50.015 12
51.023 223
51.938 25
52.029 45
52.951 7
53.038 45
54.034 16
55.017 47
55.934 52
56.941 78
59.929 11
62.014 19
63.022 273
64.026 39
65.038 525
66.045 78
67.042 91
67.934 101
68.941 36
70.950 6
72.936 86
74.013 6
75.022 52
76.031 20
77.036 999
78.044 339
79.049 224
80.048 26
81.032 11
87.021 15
88.027 29
89.038 825
90.045 272
91.053 77
92.050 16
93.054 16
94.042 48
95.049 226
96.041 9
101.035 4
102.046 44
103.055 281
104.051 348
105.048 228
106.045 28
107.048 23
113.037 38
114.046 52
115.055 512
116.052 79
117.058 152
118.047 17
128.049 27
129.054 11
130.066 308
131.056 129
132.050 44
133.056 64
140.048 60
141.060 51
142.066 42
143.068 9
144.048 12
158.060 28
159.070 14

Name: Cysteine
Synon: 2-amino-3-sulfanylpropanoic acid
DB#: MSBNK-IPB_Halle-PB000436
InChIKey: XUJNEKJLAYXESH-UHFFFAOYSA-N
InChI: InChI=1S/C3H7NO2S/c4-2(1-7)3(5)6/h2,7H,1,4H2,(H,5,6)
SMILES: C(C(C(=O)O)N)S
Precursor_type: [M+H]+
Spectrum_type: MS2
Instrument_type: LC-ESI-QTOF
Instrument: API QSTAR Pulsar i
Ion_mode: POSITIVE
Collision_energy: 10 eV
Formula: C3H7NO2S
MW: 121
ExactMass: 121.01975
Comments: Parent=-1
Splash: splash10-00di-0900000000-63006506bfb87f1af5d6
Num Peaks: 4
76.022 94
86.990 16
105.001 111
122.029 999

Name: Naringin
Synon: (2S)-7-[(2S,3R,4S,5S,6R)-4,5-dihydroxy-6-(hydroxymethyl)-3-[(2S,3R,4R,5R,6S)-3,4,5-trihydroxy-6-methyloxan-2-yl]oxyoxan-2-yl]oxy-5-hydroxy-2-(4-hydroxyphenyl)chroman-4-one
DB#: MSBNK-IPB_Halle-PB000804
InChIKey: DFPMSGMNTNDNHN-ZPHOTFPESA-N
InChI: InChI=1S/C27H32O14/c1-10-20(32)22(34)24(36)26(37-10)41-25-23(35)21(33)18(9-28)40-27(25)38-13-6-14(30)19-15(31)8-16(39-17(19)7-13)11-2-4-12(29)5-3-11/h2-7,10,16,18,20-30,32-36H,8-9H2,1H3/t10-,16-,18+,20-,21+,22+,23-,24+,25+,26-,27+/m0/s1
SMILES: C[C@H]1[C@@H]([C@H]([C@H]([C@@H](O1)O[C@@H]2[C@H]([C@@H]([C@H](O[C@H]2OC3=CC(=C4C(=O)C[C@H](OC4=C3)C5=CC=C(C=C5)O)O)CO)O)O)O)O)O
Precursor_type: [M+H-C12H20O9]+
Spectrum_type: MS2
Instrument_type: LC-ESI-QTOF
Instrument: API QSTAR Pulsar i
Ion_mode: POSITIVE
Collision_energy: 40 eV
Formula: C27H32O14
MW: 580
ExactMass: 580.17921
Comments: Parent=-1
Splash: splash10-0udi-1900000000-ba0d271620d31c9e94d7
Num Peaks: 17
67.017 101
68.996 39
69.032 9
81.034 7
91.054 38
95.049 11
97.029 20
107.048 17
111.007 19
119.048 194
121.060 9
123.042 22
125.022 27
147.044 136
153.018 999
154.022 16
171.034 18

Name: (20S)-14-oxapentacyclo[20.2.2.210,13.115,19.02,7]nonacosa-1(24),2(7),3,5,10(29),11,13(28),15,17,19(27),22,25-dodecaene-5,16,20,24-tetrol
Synon: Maruchantin E
DB#: MSBNK-IPB_Halle-PB011601
InChIKey: BTGPMKAMOFOWKF-SANMLTNESA-N
InChI: InChI=1S/C28H24O5/c29-21-7-11-23-19(15-21)5-1-17-2-8-22(9-3-17)33-28-16-20(6-12-25(28)30)26(31)13-18-4-10-24(23)27(32)14-18/h2-4,6-12,14-16,26,29-32H,1,5,13H2/t26-/m0/s1
SMILES: C1CC2=C(C=CC(=C2)O)C3=C(C=C(C[C@@H](C4=CC(=C(C=C4)O)OC5=CC=C1C=C5)O)C=C3)O
Precursor_type: [M+H]+
Spectrum_type: MS2
PrecursorMZ: 441.1697
Instrument_type: LC-ESI-QTOF
Instrument: Bruker MicrOTOF-Q
Ion_mode: POSITIVE
Collision_energy: 30.58772
Formula: C28H24O5
MW: 440
ExactMass: 440.162
Comments: Parent=441.1697
Splash: splash10-01t9-0291000000-80af9ea6bfb64c9d3a39
Num Peaks: 207
107.04 4
115.05 4
117.07 7
119.05 10
120.05 10
121.06 69
122.07 6
123.04 38
124.04 3
125.02 7
128.06 5
129.07 4
130.07 4
131.05 8
131.08 4
132.05 5
133.06 33
134.07 6
135.04 43
136.05 24
137.06 74
138.06 7
139.03 3
141.07 6
142.07 3
144.06 3
145.06 28
146.07 11
147.05 6
149.06 17
151.05 4
152.06 7
153.07 16
154.07 5
155.08 16
157.06 16
158.07 3
159.08 6
161.06 11
162.06 5
163.05 3
164.06 4
165.07 93
166.08 32
167.08 59
168.06 21
169.06 32
170.07 11
171.08 31
172.08 5
173.06 4
173.09 5
176.06 6
177.07 15
178.08 22
179.08 35
180.09 7
181.07 186
182.07 55
183.08 291
184.08 39
185.09 56
186.08 3
187.07 18
188.08 3
189.06 3
191.08 18
192.09 9
193.09 43
194.07 73
195.08 178
196.06 87
197.06 271
198.07 96
199.07 465
200.08 88
201.09 33
202.09 7
203.08 14
204.09 3
205.07 4
206.08 10
207.08 64
208.09 47
209.07 186
210.07 191
211.08 988
212.08 556
213.09 808
214.09 114
215.07 477
216.07 62
217.08 7
219.08 17
220.09 12
221.1 61
222.09 29
223.08 159
224.08 496
225.09 829
226.09 321
227.07 660
228.08 488
229.08 837
230.09 130
231.09 16
234.08 3
235.08 13
236.08 6
237.09 98
238.1 51
239.11 999
240.09 274
241.09 632
242.09 128
243.08 29
244.08 6
245.09 4
247.07 3
249.09 6
251.1 3
253.08 28
254.09 18
255.1 412
256.1 84
257.1 11
258.1 6
259.1 6
260.1 4
261.09 5
262.1 5
263.1 5
265.1 7
268.09 4
269.09 13
270.1 4
271.11 5
272.09 6
273.12 15
274.13 4
275.11 8
276.11 3
277.11 5
281.09 4
283.11 31
284.11 9
285.12 7
286.1 15
287.11 24
288.11 12
289.11 12
290.11 3
291.12 8
293.1 8
294.1 5
295.11 5
296.12 4
297.09 8
298.1 5
299.11 36
300.11 12
301.12 85
302.13 29
303.13 31
304.12 7
305.11 16
306.12 6
307.11 4
311.11 34
312.11 16
313.12 19
314.11 17
315.1 56
316.13 38
317.12 86
318.12 24
319.13 243
320.13 71
321.13 12
322.12 7
327.1 4
329.12 62
330.12 54
331.12 47
332.14 38
333.11 299
334.11 76
335.13 119
336.13 23
345.11 3
346.12 4
347.13 130
348.13 306
349.14 77
350.14 12
395.17 8
396.16 3
405.15 4
411.15 3
413.16 4
423.16 46
424.16 7
425.13 3
439.15 40
440.16 18
441.17 86
443.17 4

Name: Kinetin
Synon: N-(furan-2-ylmethyl)-7H-purin-6-amine
DB#: MSBNK-IPB_Halle-PB000630
InChIKey: QANMHLXAZMSUEX-UHFFFAOYSA-N
InChI: InChI=1S/C10H9N5O/c1-2-7(16-3-1)4-11-9-8-10(13-5-12-8)15-6-14-9/h1-3,5-6H,4H2,(H2,11,12,13,14,15)
SMILES: C1=COC(=C1)CNC2=NC=NC3=C2NC=N3
Precursor_type: [M+H]+
Spectrum_type: MS2
Instrument_type: LC-ESI-QTOF
Instrument: API QSTAR Pulsar i
Ion_mode: POSITIVE
Collision_energy: 55 eV
Formula: C10H9N5O
MW: 215
ExactMass: 215.08071
Comments: Parent=-1
Splash: splash10-0f89-9000000000-4ccae572aad078c08f52
Num Peaks: 8
51.027 10
53.039 579
67.028 8
81.034 999
92.028 14
93.032 3
94.043 10
119.035 58

Name: Quercetin
Synon: 2-(3,4-dihydroxyphenyl)-3,5,7-trihydroxychromen-4-one
DB#: MSBNK-IPB_Halle-PB004084
InChIKey: REFJWTPEDVJJIY-UHFFFAOYSA-N
InChI: InChI=1S/C15H10O7/c16-7-4-10(19)12-11(5-7)22-15(14(21)13(12)20)6-1-2-8(17)9(18)3-6/h1-5,16-19,21H
SMILES: C1=CC(=C(C=C1C2=C(C(=O)C3=C(C=C(C=C3O2)O)O)O)O)O
Precursor_type: [M+H]+
Spectrum_type: MS2
Instrument_type: LC-ESI-QQ
Instrument: TSQ QUANTUM AM
Ion_mode: POSITIVE
Collision_energy: 30 eV
Formula: C15H10O7
MW: 302
ExactMass: 302.04265
Comments: Parent=-1
Splash: splash10-0udi-0972000000-03a26fc17df5ae92e2bc
Num Peaks: 128
53.000 1
55.000 2
65.000 6
67.000 12
69.000 42
71.000 2
77.000 7
79.000 0
81.000 18
91.000 1
93.000 24
95.000 24
97.000 0
99.000 7
101.000 5
103.000 6
105.000 13
107.000 9
109.000 103
110.000 7
111.000 92
115.000 14
117.000 25
118.000 0
119.000 4
120.000 0
121.000 121
122.000 4
123.000 45
125.000 2
126.000 1
127.000 47
128.000 3
129.000 5
130.000 1
131.000 29
133.000 14
135.000 29
136.000 3
137.000 419
138.000 1
139.000 10
140.000 0
143.000 2
144.000 4
145.000 65
147.000 7
149.000 77
151.000 8
152.000 1
153.000 676
155.000 66
156.000 0
157.000 10
159.000 28
160.000 0
161.000 90
162.000 0
163.000 130
165.000 454
166.000 40
167.000 4
168.000 2
171.000 0
173.000 144
174.000 8
175.000 4
176.000 0
177.000 38
178.000 1
179.000 36
181.000 0
183.000 127
184.000 5
185.000 2
186.000 0
187.000 88
188.000 1
189.000 3
190.000 1
191.000 36
193.000 7
194.000 9
195.000 41
199.000 5
200.000 4
201.000 425
202.000 3
203.000 5
205.000 31
207.000 15
211.000 37
213.000 35
215.000 28
216.000 1
217.000 6
219.000 67
221.000 18
225.000 0
228.000 56
229.000 999
230.000 0
231.000 6
232.000 10
233.000 1
236.000 0
239.000 48
240.000 1
241.000 2
243.000 11
245.000 21
246.000 16
247.000 79
256.000 1
257.000 457
258.000 10
259.000 0
261.000 1
267.000 7
269.000 3
273.000 2
274.000 131
275.000 10
285.000 159
286.000 7
301.000 0
302.000 0
303.000 995

Name: Serotonin
Synon: 3-(2-aminoethyl)-1H-indol-5-ol
DB#: MSBNK-IPB_Halle-PB001419
InChIKey: QZAYGJVTTNCVMB-UHFFFAOYSA-N
InChI: InChI=1S/C10H12N2O/c11-4-3-7-6-12-10-2-1-8(13)5-9(7)10/h1-2,5-6,12-13H,3-4,11H2
SMILES: C1=CC2=C(C=C1O)C(=CN2)CCN
Precursor_type: [M+H]+
Spectrum_type: MS2
Instrument_type: LC-ESI-QTOF
Instrument: API QSTAR Pulsar i
Ion_mode: POSITIVE
Collision_energy: 40 eV
Formula: C10H12N2O
MW: 176
ExactMass: 176.09496
Comments: Parent=-1
Splash: splash10-0159-4900000000-a8fc7dff385a4f51b88a
Num Peaks: 55
39.020 8
43.015 10
51.941 13
53.041 7
54.034 13
55.018 34
55.935 11
56.942 67
63.021 14
65.037 204
66.043 20
67.040 134
67.934 66
68.940 12
70.956 8
72.935 55
77.037 335
78.044 63
79.052 260
80.047 28
89.038 176
90.045 106
91.055 110
92.053 10
93.056 13
94.042 64
95.050 88
96.939 26
102.046 11
103.055 175
104.051 125
105.067 317
106.053 40
107.049 47
113.037 5
114.046 22
115.054 999
116.052 136
117.058 560
118.054 16
128.051 20
130.066 359
131.066 271
132.076 113
133.055 288
134.065 13
140.051 58
141.057 90
142.066 98
143.071 156
144.052 37
145.052 30
158.062 75
159.069 228
160.077 27

Name: Threonine
Synon: 2-amino-3-hydroxybutanoic acid
DB#: MSBNK-IPB_Halle-PB000404
InChIKey: AYFVYJQAPQTCCC-UHFFFAOYSA-N
InChI: InChI=1S/C4H9NO3/c1-2(6)3(5)4(7)8/h2-3,6H,5H2,1H3,(H,7,8)
SMILES: CC(C(C(=O)O)N)O
Precursor_type: [M+H]+
Spectrum_type: MS2
Instrument_type: LC-ESI-QTOF
Instrument: API QSTAR Pulsar i
Ion_mode: POSITIVE
Collision_energy: 15 eV
Formula: C4H9NO3
MW: 119
ExactMass: 119.05824
Comments: Parent=-1
Splash: splash10-00di-9400000000-a2b9e7dbbd9595a62299
Num Peaks: 6
56.051 326
57.034 15
74.061 999
84.045 77
102.056 407
120.067 278

Name: Quercetin
Synon: 2-(3,4-dihydroxyphenyl)-3,5,7-trihydroxychromen-4-one
DB#: MSBNK-IPB_Halle-PB000202
InChIKey: REFJWTPEDVJJIY-UHFFFAOYSA-N
InChI: InChI=1S/C15H10O7/c16-7-4-10(19)12-11(5-7)22-15(14(21)13(12)20)6-1-2-8(17)9(18)3-6/h1-5,16-19,21H
SMILES: C1=CC(=C(C=C1C2=C(C(=O)C3=C(C=C(C=C3O2)O)O)O)O)O
Precursor_type: [M+H]+
Spectrum_type: MS2
Instrument_type: LC-ESI-QTOF
Instrument: API QSTAR Pulsar i
Ion_mode: POSITIVE
Collision_energy: 40 eV
Formula: C15H10O7
MW: 302
ExactMass: 302.04265
Comments: Parent=-1
Splash: splash10-0ufr-0961000000-fb42c6414c6952f1e4b0
Num Peaks: 72
55.017 10
68.997 34
81.034 12
93.034 26
95.052 30
105.045 15
107.056 15
109.028 79
110.035 10
111.009 134
115.054 15
117.066 27
121.028 186
123.043 62
127.042 38
129.066 9
131.047 26
133.045 24
135.044 44
137.024 601
138.029 14
139.048 10
143.050 9
145.061 66
149.026 69
151.042 9
153.018 912
154.023 19
155.050 104
157.066 15
159.045 23
161.060 63
163.043 120
165.020 370
166.028 54
173.058 141
177.041 40
179.037 36
183.042 162
184.052 12
185.062 8
187.042 82
191.051 43
195.033 35
200.048 10
201.056 384
202.059 14
203.038 10
205.047 40
207.033 20
211.042 43
213.057 20
215.038 19
217.051 12
219.056 76
228.043 78
229.050 999
230.054 40
232.038 22
233.046 14
239.035 63
245.046 26
246.055 19
247.063 101
257.050 414
258.055 25
274.049 102
275.056 16
285.038 131
286.043 11
303.050 689
304.054 31

Name: Chrysoeriol O-glucosylglucoside malonylated
DB#: MSBNK-IPB_Halle-PN000076
InChI: N/A
SMILES: N/A
Precursor_type: [M-H]-
Spectrum_type: MS2
PrecursorMZ: 709.433
Instrument_type: ESI-TOF
Instrument: micrOTOF-Q
Ion_mode: NEGATIVE
Collision_energy: 25 eV
Formula: C31H34O19
MW: 710
ExactMass: 710.1694288680001
Comments: Parent=709.433
Splash: splash10-014j-0050009000-ebe8c87a8b7a2b13eace
Num Peaks: 16
284.0302 12
285.0363 9
299.0535 875
300.0587 98
301.0604 20
485.1104 19
503.1196 33
605.1577 37
606.1701 10
623.1658 132
624.1736 39
625.1661 10
665.1756 999
666.1758 228
667.1847 54
668.1794 15

Name: Tyramine
Synon: 4-(2-aminoethyl)phenol
DB#: MSBNK-IPB_Halle-PB006085
InChIKey: DZGWFCGJZKJUFP-UHFFFAOYSA-N
InChI: InChI=1S/C8H11NO/c9-6-5-7-1-3-8(10)4-2-7/h1-4,10H,5-6,9H2
SMILES: C1=CC(=CC=C1CCN)O
Precursor_type: [M+H]+
Spectrum_type: MS2
Instrument_type: LC-ESI-QTOF
Instrument: micrOTOF-Q
Ion_mode: POSITIVE
Collision_energy: 10 eV
Formula: C8H11NO
MW: 137
ExactMass: 137.08406
Comments: Parent=-1
Splash: splash10-00di-0900000000-65d023da9eb1b11298f7
Num Peaks: 4
103.054 1
121.063 999
122.067 81
138.089 1

Name: 5-Hydroxyindole-3-acetic acid
Synon: 2-(5-hydroxy-1H-indol-3-yl)acetic acid
DB#: MSBNK-IPB_Halle-PB001381
InChIKey: DUUGKQCEGZLZNO-UHFFFAOYSA-N
InChI: InChI=1S/C10H9NO3/c12-7-1-2-9-8(4-7)6(5-11-9)3-10(13)14/h1-2,4-5,11-12H,3H2,(H,13,14)
SMILES: C1=CC2=C(C=C1O)C(=CN2)CC(=O)O
Precursor_type: [M+H]+
Spectrum_type: MS2
Instrument_type: LC-ESI-QTOF
Instrument: API QSTAR Pulsar i
Ion_mode: POSITIVE
Collision_energy: 15 eV
Formula: C10H9NO3
MW: 191
ExactMass: 191.05824
Comments: Parent=-1
Splash: splash10-0002-0900000000-dc26be88646175dd5588
Num Peaks: 8
59.057 13
60.060 7
145.940 5
146.060 999
147.064 14
192.065 482
192.174 26
193.069 7

Name: Resveratrol
Synon: 5-[(E)-2-(4-hydroxyphenyl)ethenyl]benzene-1,3-diol
DB#: MSBNK-IPB_Halle-PB003662
InChIKey: LUKBXSAWLPMMSZ-OWOJBTEDSA-N
InChI: InChI=1S/C14H12O3/c15-12-5-3-10(4-6-12)1-2-11-7-13(16)9-14(17)8-11/h1-9,15-17H/b2-1+
SMILES: C1=CC(=CC=C1/C=C/C2=CC(=CC(=C2)O)O)O
Precursor_type: [M-H]-
Spectrum_type: MS2
Instrument_type: LC-ESI-QQ
Instrument: TSQ QUANTUM AM
Ion_mode: NEGATIVE
Collision_energy: 25 eV
Formula: C14H12O3
MW: 228
ExactMass: 228.07864
Comments: Parent=-1
Splash: splash10-000f-0900000000-2b750fcfd933ce8809f2
Num Peaks: 46
41.000 3
81.000 0
93.000 3
107.000 1
115.000 19
117.000 51
119.000 21
129.000 0
139.000 1
140.000 1
141.000 34
142.000 0
143.000 999
144.000 0
145.000 24
151.000 0
152.000 0
153.000 1
155.000 9
156.000 11
157.000 105
159.000 131
161.000 6
163.000 0
165.000 1
167.000 13
168.000 7
170.000 9
180.000 21
181.000 124
182.000 159
183.000 123
184.000 24
185.000 631
195.000 0
196.000 1
197.000 1
198.000 1
199.000 3
208.000 2
209.000 3
212.000 5
224.000 0
225.000 23
226.000 2
227.000 195

Name: Resveratrol
Synon: 5-[(E)-2-(4-hydroxyphenyl)ethenyl]benzene-1,3-diol
DB#: MSBNK-IPB_Halle-PB000661
InChIKey: LUKBXSAWLPMMSZ-OWOJBTEDSA-N
InChI: InChI=1S/C14H12O3/c15-12-5-3-10(4-6-12)1-2-11-7-13(16)9-14(17)8-11/h1-9,15-17H/b2-1+
SMILES: C1=CC(=CC=C1/C=C/C2=CC(=CC(=C2)O)O)O
Precursor_type: [M+H]+
Spectrum_type: MS2
Instrument_type: LC-ESI-QTOF
Instrument: API QSTAR Pulsar i
Ion_mode: POSITIVE
Collision_energy: 55 eV
Formula: C14H12O3
MW: 228
ExactMass: 228.07864
Comments: Parent=-1
Splash: splash10-016r-8900000000-7a10869ce89fa2c7828f
Num Peaks: 60
39.021 17
41.037 19
43.017 37
51.023 50
53.039 60
55.018 126
63.021 32
65.037 606
66.042 21
67.053 54
68.996 252
71.012 9
77.036 999
78.042 39
79.052 219
80.057 9
81.032 106
89.037 53
90.045 12
91.053 729
92.058 32
93.033 16
94.042 38
95.049 197
103.056 33
105.045 76
107.049 512
108.052 17
115.053 302
116.061 37
117.069 8
118.041 19
119.049 95
120.057 66
121.030 42
123.043 10
126.044 15
127.053 71
128.060 178
129.068 56
131.049 63
139.051 220
140.058 47
141.067 51
144.053 40
145.060 53
151.049 34
152.058 316
153.065 237
154.072 39
155.059 59
157.062 27
163.053 117
164.061 250
165.069 493
166.072 34
168.057 43
169.062 18
181.065 200
182.071 23

Name: Scopoletin
Synon: 7-hydroxy-6-methoxychromen-2-one
DB#: MSBNK-IPB_Halle-PB002204
InChIKey: RODXRVNMMDRFIK-UHFFFAOYSA-N
InChI: InChI=1S/C10H8O4/c1-13-9-4-6-2-3-10(12)14-8(6)5-7(9)11/h2-5,11H,1H3
SMILES: COC1=C(C=C2C(=C1)C=CC(=O)O2)O
Precursor_type: [M+H]+
Spectrum_type: MS2
Instrument_type: LC-ESI-QQ
Instrument: TSQ 7000
Ion_mode: POSITIVE
Collision_energy: 25 eV
Formula: C10H8O4
MW: 192
ExactMass: 192.04226
Comments: Parent=-1
Splash: splash10-003r-0900000000-2476086c859d48be9a99
Num Peaks: 116
26.000 0
28.000 1
29.000 7
34.000 4
35.000 0
36.000 3
37.000 3
38.000 0
41.000 1
42.000 6
46.000 1
50.000 3
51.000 1
52.000 0
53.000 0
56.000 1
57.000 2
59.000 5
61.000 2
62.000 0
64.000 1
65.000 2
66.000 2
67.000 3
68.000 0
69.000 1
70.000 5
71.000 0
73.000 1
76.000 1
77.000 15
78.000 8
79.000 3
80.000 2
81.000 6
82.000 1
83.000 0
84.000 0
87.000 0
89.000 25
90.000 1
91.000 11
92.000 0
93.000 3
94.000 57
96.000 1
100.000 1
101.000 7
104.000 0
105.000 42
106.000 8
107.000 7
109.000 8
110.000 6
111.000 0
112.000 3
113.000 6
114.000 3
115.000 5
116.000 0
117.000 27
119.000 0
121.000 2
122.000 182
123.000 6
124.000 0
128.000 0
129.000 0
130.000 1
132.000 0
133.000 999
134.000 34
135.000 0
137.000 396
138.000 7
139.000 1
141.000 2
143.000 1
144.000 4
147.000 0
148.000 2
149.000 22
150.000 141
151.000 1
152.000 0
153.000 0
154.000 1
156.000 0
160.000 0
161.000 17
162.000 0
164.000 2
165.000 24
167.000 2
168.000 0
169.000 7
170.000 0
171.000 0
172.000 0
173.000 0
174.000 4
175.000 0
178.000 783
179.000 18
181.000 0
182.000 0
183.000 5
184.000 0
185.000 2
191.000 0
192.000 0
193.000 430
194.000 8
196.000 1
197.000 5
199.000 0

Name: Xanthohumol
Synon: (E)-1-[2,4-dihydroxy-6-methoxy-3-(3-methylbut-2-enyl)phenyl]-3-(4-hydroxyphenyl)prop-2-en-1-one
DB#: MSBNK-IPB_Halle-PB004923
InChIKey: ORXQGKIUCDPEAJ-YRNVUSSQSA-N
InChI: InChI=1S/C21H22O5/c1-13(2)4-10-16-18(24)12-19(26-3)20(21(16)25)17(23)11-7-14-5-8-15(22)9-6-14/h4-9,11-12,22,24-25H,10H2,1-3H3/b11-7+
SMILES: CC(=CCC1=C(C(=C(C=C1O)OC)C(=O)/C=C/C2=CC=C(C=C2)O)O)C
Precursor_type: [M+H]+
Spectrum_type: MS2
Instrument_type: LC-ESI-QQ
Instrument: TSQ QUANTUM AM
Ion_mode: POSITIVE
Collision_energy: 25 eV
Formula: C21H22O5
MW: 354
ExactMass: 354.14672
Comments: Parent=-1
Splash: splash10-004i-0900000000-4e1106c364aad0846401
Num Peaks: 9
95.000 0
113.000 2
121.000 1
123.000 0
151.000 9
161.000 0
179.000 999
257.000 14
299.000 7

Name: Leucine
Synon: 2-amino-4-methylpentanoic acid
DB#: MSBNK-IPB_Halle-PB000394
InChIKey: ROHFNLRQFUQHCH-UHFFFAOYSA-N
InChI: InChI=1S/C6H13NO2/c1-4(2)3-5(7)6(8)9/h4-5H,3,7H2,1-2H3,(H,8,9)
SMILES: CC(C)CC(C(=O)O)N
Precursor_type: [M+H]+
Spectrum_type: MS2
Instrument_type: LC-ESI-QTOF
Instrument: API QSTAR Pulsar i
Ion_mode: POSITIVE
Collision_energy: 40 eV
Formula: C6H13NO2
MW: 131
ExactMass: 131.09463
Comments: Parent=-1
Splash: splash10-0006-9000000000-b3dd318079998826e948
Num Peaks: 20
39.024 80
41.040 490
42.029 0
43.019 3
43.055 604
44.052 999
45.034 11
53.046 6
55.021 49
55.057 74
56.053 12
57.061 18
58.046 1
59.051 2
62.932 16
67.060 1
69.072 24
73.030 6
73.066 7
86.100 54

Name: Cinchonine
Synon: (S)-(5-ethenyl-1-azabicyclo[2.2.2]octan-7-yl)-quinolin-4-ylmethanol
DB#: MSBNK-IPB_Halle-PB005844
InChIKey: KMPWYEUPVWOPIM-QAMTZSDWSA-N
InChI: InChI=1S/C19H22N2O/c1-2-13-12-21-10-8-14(13)11-18(21)19(22)16-7-9-20-17-6-4-3-5-15(16)17/h2-7,9,13-14,18-19,22H,1,8,10-12H2/t13-,14-,18+,19-/m0/s1
SMILES: C=C[C@H]1CN2CC[C@H]1C[C@@H]2[C@H](C3=CC=NC4=CC=CC=C34)O
Precursor_type: [M+H]+
Spectrum_type: MS2
Instrument_type: LC-ESI-QTOF
Instrument: micrOTOF-Q
Ion_mode: POSITIVE
Collision_energy: 30 eV
Formula: C19H22N2O
MW: 294
ExactMass: 294.17321
Comments: Parent=-1
Splash: splash10-069v-0980000000-7f7e6c715b0f97acf5bd
Num Peaks: 301
100.495 0
104.023 1
110.104 0
115.007 0
115.052 49
116.058 2
116.069 0
117.052 11
117.068 5
117.688 0
117.766 0
118.064 12
119.069 2
119.082 0
120.078 34
121.062 0
121.086 5
122.094 15
123.095 2
124.109 16
124.122 4
125.116 0
127.052 1
128.048 119
129.038 1
129.058 53
129.130 0
130.063 727
130.123 1
131.065 63
132.043 0
132.079 42
132.106 0
132.902 0
133.047 5
133.087 2
133.965 0
134.094 150
135.100 31
136.111 71
137.114 3
138.124 18
138.537 0
139.027 1
139.063 0
140.051 16
140.095 0
141.055 3
141.384 0
142.012 1
142.063 525
142.136 0
143.070 330
143.273 0
144.077 197
145.057 2
145.081 15
145.395 0
146.060 17
146.087 5
146.113 0
148.067 0
148.106 3
151.048 0
152.060 4
152.104 1
152.740 0
153.070 2
153.173 0
154.063 376
154.091 1
155.069 123
156.047 1
156.078 529
157.042 0
157.080 64
157.117 0
157.693 0
158.058 68
158.079 0
158.114 3
159.066 124
159.459 1
160.071 13
161.074 0
164.100 0
165.072 4
166.064 138
166.120 62
166.217 1
166.270 0
167.071 407
167.134 2
167.990 0
168.078 644
168.143 0
168.181 2
168.210 0
168.726 0
169.078 171
170.062 19
170.089 51
170.148 0
171.089 31
171.115 0
172.075 160
172.101 1
173.081 9
179.073 21
179.897 0
180.079 278
180.143 0
180.425 0
181.078 205
181.147 0
181.369 0
181.764 1
182.088 142
182.195 0
183.086 96
183.107 2
184.074 169
184.120 2
184.139 0
185.080 19
185.111 4
186.093 8
187.015 0
187.546 0
190.454 0
191.073 31
191.189 0
192.078 68
192.137 0
192.753 1
193.085 84
193.147 0
194.092 168
195.094 94
196.106 133
196.171 0
197.104 91
197.255 0
198.090 7
198.117 2
199.095 0
199.127 0
200.095 1
202.068 0
203.068 9
204.078 217
204.145 2
205.085 107
205.177 0
205.239 0
205.437 0
206.091 234
206.182 0
206.253 0
207.094 130
207.157 0
207.942 0
207.994 0
208.106 135
208.140 0
208.194 0
208.932 0
209.077 0
209.106 109
209.169 0
210.112 49
210.148 0
211.113 14
212.104 15
213.098 1
213.895 0
214.062 0
214.118 22
215.083 2
215.167 0
216.077 18
216.954 0
217.087 89
217.120 0
218.091 221
218.160 2
219.096 193
220.104 212
221.105 300
221.175 3
221.205 1
221.237 1
221.392 0
222.114 265
222.186 1
222.984 1
223.118 220
224.130 58
224.155 1
225.142 5
225.176 0
226.149 0
228.079 0
229.089 0
229.612 1
230.094 32
231.099 38
232.107 136
232.554 0
233.109 117
233.223 2
233.605 0
234.123 328
234.203 0
234.942 0
235.120 520
235.223 5
236.065 0
236.129 200
236.246 0
236.896 1
237.134 25
238.151 36
238.218 1
239.018 1
239.139 2
240.138 7
242.947 0
244.109 28
244.154 0
245.111 10
246.124 47
247.121 73
248.136 163
249.138 81
250.142 21
251.105 0
251.149 3
251.915 2
252.133 65
252.349 0
252.912 1
252.950 0
253.140 6
254.906 0
256.652 0
258.118 1
258.919 0
259.115 0
260.132 7
260.194 0
261.133 32
261.332 0
261.925 0
262.140 15
263.149 4
264.129 0
265.167 12
266.118 1
266.151 49
267.168 15
268.897 0
271.103 0
271.562 1
272.168 0
274.902 0
275.149 24
276.127 0
276.156 4
276.901 0
277.165 999
277.357 0
278.066 1
278.168 156
278.231 1
279.156 0
293.158 0
295.176 987
295.400 1
295.510 2
295.543 0
296.178 177
296.259 0
296.313 0
296.345 1
296.812 1
309.897 0
312.364 0
332.598 0
370.432 0
381.019 0
386.889 0
423.405 1
459.538 0
470.372 0
522.975 0
548.796 1
611.149 0
672.206 0
727.625 0
858.741 0

Name: Daidzein
Synon: 7-hydroxy-3-(4-hydroxyphenyl)chromen-4-one
DB#: MSBNK-IPB_Halle-PB000861
InChIKey: ZQSIJRDFPHDXIC-UHFFFAOYSA-N
InChI: InChI=1S/C15H10O4/c16-10-3-1-9(2-4-10)13-8-19-14-7-11(17)5-6-12(14)15(13)18/h1-8,16-17H
SMILES: C1=CC(=CC=C1C2=COC3=C(C2=O)C=CC(=C3)O)O
Precursor_type: [M+H]+
Spectrum_type: MS2
Instrument_type: LC-ESI-QTOF
Instrument: API QSTAR Pulsar i
Ion_mode: POSITIVE
Collision_energy: 55 eV
Formula: C15H10O4
MW: 254
ExactMass: 254.05791
Comments: Parent=-1
Splash: splash10-0udl-3900000000-e8162c1006d0804fda78
Num Peaks: 58
53.039 28
55.018 75
65.038 378
68.997 54
77.038 36
78.046 30
81.034 183
89.039 34
91.055 693
92.058 19
93.034 12
103.055 25
105.035 74
106.042 59
107.049 14
109.028 34
115.054 130
116.060 15
118.042 38
119.050 78
121.029 57
127.053 90
128.060 444
129.067 80
131.048 102
134.036 31
137.024 337
139.055 14
141.071 95
142.077 13
143.086 19
144.057 25
145.064 54
147.044 35
150.047 14
151.055 114
152.062 999
153.070 333
154.076 24
155.059 96
156.060 19
157.067 45
163.059 21
165.075 24
168.062 21
169.070 110
170.077 30
171.084 30
179.067 27
180.064 11
181.072 384
182.078 47
184.059 66
197.066 128
198.073 40
199.082 40
209.070 12
237.061 13

Name: Naringenin chalcone
Synon: 3-(4-hydroxyphenyl)-1-(2,4,6-trihydroxyphenyl)prop-2-en-1-one
DB#: MSBNK-IPB_Halle-PB000127
InChIKey: YQHMWTPYORBCMF-ZZXKWVIFSA-N
InChI: InChI=1S/C15H12O5/c16-10-4-1-9(2-5-10)3-6-12(18)15-13(19)7-11(17)8-14(15)20/h1-8,16-17,19-20H/b6-3+
SMILES: C1=CC(=CC=C1/C=C/C(=O)C2=C(C=C(C=C2O)O)O)O
Precursor_type: [M+H]+
Spectrum_type: MS2
Instrument_type: LC-ESI-QTOF
Instrument: API QSTAR Pulsar i
Ion_mode: POSITIVE
Collision_energy: 25 eV
Formula: C15H12O5
MW: 272
ExactMass: 272.06847
Comments: Parent=-1
Splash: splash10-0udj-0920000000-1bfd55f600a901a79c87
Num Peaks: 10
107.051 11
119.051 50
123.045 38
147.044 612
151.040 12
153.018 999
154.022 12
179.038 13
189.058 16
273.076 440

Name: Nicotinoylcholine
Synon: trimethyl-[2-(pyridine-3-carbonyloxy)ethyl]azanium
DB#: MSBNK-IPB_Halle-PB000345
InChIKey: ZMPGJEYFRZCHQC-UHFFFAOYSA-N
InChI: InChI=1S/C11H17N2O2/c1-13(2,3)7-8-15-11(14)10-5-4-6-12-9-10/h4-6,9H,7-8H2,1-3H3/q+1
SMILES: C[N+](C)(C)CCOC(=O)C1=CN=CC=C1
Precursor_type: [M]+
Spectrum_type: MS2
Instrument_type: LC-ESI-QTOF
Instrument: API QSTAR Pulsar i
Ion_mode: POSITIVE
Collision_energy: 40 eV
Formula: [C11H17N2O2]+
MW: 209
ExactMass: 209.12900
Comments: Parent=-1
Splash: splash10-0a4i-1900000000-d1fa419e0ddb410025fc
Num Peaks: 3
78.034 188
106.029 999
150.052 157

Name: Bicuculline
Synon: (6R)-6-[(5S)-6-methyl-7,8-dihydro-5H-[1,3]dioxolo[4,5-g]isoquinolin-5-yl]-6H-furo[3,4-g][1,3]benzodioxol-8-one
DB#: MSBNK-IPB_Halle-PB005941
InChIKey: IYGYMKDQCDOMRE-ZWKOTPCHSA-N
InChI: InChI=1S/C20H17NO6/c1-21-5-4-10-6-14-15(25-8-24-14)7-12(10)17(21)18-11-2-3-13-19(26-9-23-13)16(11)20(22)27-18/h2-3,6-7,17-18H,4-5,8-9H2,1H3/t17-,18+/m0/s1
SMILES: CN1CCC2=CC3=C(C=C2[C@H]1[C@H]4C5=C(C6=C(C=C5)OCO6)C(=O)O4)OCO3
Precursor_type: [M+H]+
Spectrum_type: MS2
Instrument_type: LC-ESI-QTOF
Instrument: micrOTOF-Q
Ion_mode: POSITIVE
Collision_energy: 10 eV
Formula: C20H17NO6
MW: 367
ExactMass: 367.10559
Comments: Parent=-1
Splash: splash10-014i-0009000000-7549cdeeb71ef4470dc1
Num Peaks: 19
190.084 7
249.051 1
277.046 4
279.060 0
289.046 0
295.054 0
307.056 85
308.060 11
319.056 10
320.059 0
325.067 10
326.071 1
337.068 4
350.098 1
367.822 0
368.109 999
368.486 0
369.112 163
370.115 7

Name: Tyramine
Synon: 4-(2-aminoethyl)phenol
DB#: MSBNK-IPB_Halle-PB006102
InChIKey: DZGWFCGJZKJUFP-UHFFFAOYSA-N
InChI: InChI=1S/C8H11NO/c9-6-5-7-1-3-8(10)4-2-7/h1-4,10H,5-6,9H2
SMILES: C1=CC(=CC=C1CCN)O
Precursor_type: [M+H]+
Spectrum_type: MS2
Instrument_type: LC-ESI-QTOF
Instrument: micrOTOF-Q
Ion_mode: POSITIVE
Collision_energy: 20 eV
Formula: C8H11NO
MW: 137
ExactMass: 137.08406
Comments: Parent=-1
Splash: splash10-00di-0900000000-6fee17263658cb5b3fe2
Num Peaks: 17
102.042 0
103.050 21
104.063 0
119.049 11
120.057 10
121.063 999
121.784 0
121.813 0
122.067 86
134.937 2
152.955 0
159.871 0
232.958 1
422.495 0
439.515 0
582.782 0
935.095 0

Name: 3-Acetylindole
Synon: 1-(1H-indol-3-yl)ethanone
DB#: MSBNK-IPB_Halle-PB000496
InChIKey: VUIMBZIZZFSQEE-UHFFFAOYSA-N
InChI: InChI=1S/C10H9NO/c1-7(12)9-6-11-10-5-3-2-4-8(9)10/h2-6,11H,1H3
SMILES: CC(=O)C1=CNC2=CC=CC=C21
Precursor_type: [M+H]+
Spectrum_type: MS2
Instrument_type: LC-ESI-QTOF
Instrument: API QSTAR Pulsar i
Ion_mode: POSITIVE
Collision_energy: 20 eV
Formula: C10H9NO
MW: 159
ExactMass: 159.06841
Comments: Parent=-1
Splash: splash10-03xu-2900000000-7a88235c9e4eb171b575
Num Peaks: 3
43.019 594
118.067 964
160.078 999

Name: Apigenin-7-O-glucoside
Synon: Apigetrin
Synon: Cosmosiin
Synon: 5-hydroxy-2-(4-hydroxyphenyl)-7-[(2S,3R,4S,5R,6R)-3,4,5-trihydroxy-6-(hydroxymethyl)oxan-2-yl]oxy-chromen-4-one
DB#: MSBNK-IPB_Halle-PN000066
InChIKey: KMOUJOKENFFTPU-QNDFHXLGSA-N
InChI: InChI=1S/C21H20O10/c22-8-16-18(26)19(27)20(28)21(31-16)29-11-5-12(24)17-13(25)7-14(30-15(17)6-11)9-1-3-10(23)4-2-9/h1-7,16,18-24,26-28H,8H2/t16-,18-,19+,20-,21-/m1/s1
SMILES: C1=CC(=CC=C1C2=CC(=O)C3=C(C=C(C=C3O2)O[C@H]4[C@@H]([C@H]([C@@H]([C@H](O4)CO)O)O)O)O)O
Precursor_type: [M+H]+
Spectrum_type: MS2
PrecursorMZ: 433.111
Instrument_type: ESI-TOF
Instrument: micrOTOF-Q
Ion_mode: POSITIVE
Collision_energy: 15 eV
Formula: C21H20O10
MW: 432
ExactMass: 432.10565
Comments: Parent=433.111
Splash: splash10-00di-0090000000-bf97a834e5af15a4458b
Num Peaks: 5
271.059 999
272.062 111
273.066 13
433.113 13
434.105 2

Name: Rutin
Synon: 2-(3,4-dihydroxyphenyl)-5,7-dihydroxy-3-[(2S,3R,4S,5S,6R)-3,4,5-trihydroxy-6-[[(2R,3R,4R,5R,6S)-3,4,5-trihydroxy-6-methyloxan-2-yl]oxymethyl]oxan-2-yl]oxychromen-4-one
DB#: MSBNK-IPB_Halle-PB001342
InChIKey: IKGXIBQEEMLURG-NVPNHPEKSA-N
InChI: InChI=1S/C27H30O16/c1-8-17(32)20(35)22(37)26(40-8)39-7-15-18(33)21(36)23(38)27(42-15)43-25-19(34)16-13(31)5-10(28)6-14(16)41-24(25)9-2-3-11(29)12(30)4-9/h2-6,8,15,17-18,20-23,26-33,35-38H,7H2,1H3/t8-,15+,17-,18+,20+,21-,22+,23+,26+,27-/m0/s1
SMILES: C[C@H]1[C@@H]([C@H]([C@H]([C@@H](O1)OC[C@@H]2[C@H]([C@@H]([C@H]([C@@H](O2)OC3=C(OC4=CC(=CC(=C4C3=O)O)O)C5=CC(=C(C=C5)O)O)O)O)O)O)O)O
Precursor_type: [M+H]+
Spectrum_type: MS2
Instrument_type: LC-ESI-QTOF
Instrument: API QSTAR Pulsar i
Ion_mode: POSITIVE
Collision_energy: 25 eV
Formula: C27H30O16
MW: 610
ExactMass: 610.15338
Comments: Parent=-1
Splash: splash10-0wmi-0009506000-717207d912e0da3f0ec1
Num Peaks: 6
147.064 13
303.050 999
449.110 57
465.102 578
611.159 647
611.364 25

Name: 2-oxapentacyclo[21.2.2.13,7.110,14.015,20]nonacosa-1(25),3,5,7(29),10(28),11,13,15(20),16,18,23,26-dodecaene-4,13,18-triol
Synon: UTQZPYPEAXCDNU-UHFFFAOYSA-N
DB#: MSBNK-IPB_Halle-PB012101
InChIKey: UTQZPYPEAXCDNU-UHFFFAOYSA-N
InChI: InChI=1S/C28H24O4/c29-22-9-12-24-21(17-22)8-3-18-4-10-23(11-5-18)32-28-16-20(7-14-27(28)31)2-1-19-6-13-26(30)25(24)15-19/h4-7,9-17,29-31H,1-3,8H2
SMILES: C1CC2=C(C=CC(=C2)O)C3=C(C=CC(=C3)CCC4=CC(=C(C=C4)O)OC5=CC=C1C=C5)O
Precursor_type: [M+H]+
Spectrum_type: MS2
PrecursorMZ: 425.1747
Instrument_type: LC-ESI-QTOF
Instrument: Bruker MicrOTOF-Q
Ion_mode: POSITIVE
Collision_energy: 29.3881025
Formula: C28H24O4
MW: 424
ExactMass: 424.167
Comments: Parent=425.1747
Splash: splash10-03di-0292000000-f4c125f98918a89b1005
Num Peaks: 182
107.05 3
115.05 2
117.07 4
119.05 5
120.06 14
121.06 102
122.07 8
127.05 2
128.06 2
129.07 2
130.07 3
131.05 11
132.05 4
133.06 22
134.07 1
135.04 7
137.06 4
141.07 6
142.07 3
143.08 4
145.06 18
146.07 4
147.08 2
152.06 7
153.07 12
155.09 9
156.09 2
157.07 12
158.07 3
159.08 2
161.06 2
161.13 4
163.05 2
163.15 2
164.06 1
165.07 88
166.08 23
167.09 60
168.09 8
169.07 13
170.07 10
171.08 17
172.08 4
173.06 2
176.06 3
177.07 24
178.08 26
179.08 25
180.09 5
181.07 55
182.07 19
183.08 131
184.08 35
185.09 48
186.09 6
187.07 1
188.08 1
189.16 2
191.09 7
192.09 7
193.07 48
194.07 47
195.08 204
195.99 1
196.09 117
197.06 214
198.07 91
199.08 371
200.08 53
201.08 9
201.16 1
202.08 3
203.09 11
204.09 4
206.07 6
207.08 33
208.09 34
209 1
209.1 149
210.07 125
211.08 964
211.98 3
212.08 744
213.09 912
214.09 133
215.1 13
215.18 1
219.08 13
219.17 18
220.09 4
221.1 62
222.1 33
223.08 86
224.08 317
225.09 999
226.1 231
227.09 42
228.08 13
229.09 2
231.08 2
233.09 1
234.07 1
235.07 5
236.08 2
237.09 66
238.1 54
239.11 662
240.11 114
241.12 7
242.09 1
243.1 2
245.08 1
248.09 3
249.09 5
250.09 3
252.09 2
253.11 1
255.11 2
257.1 4
259.11 3
261.09 9
262.1 3
263.09 2
265.1 2
267.12 10
268.12 2
269.1 3
270.1 8
271.1 5
272.12 3
273.1 4
274.1 3
275.11 4
277.11 6
278.11 3
280.09 1
283.11 4
284.08 5
285.12 20
286.13 4
287.1 4
288.12 8
289.12 13
290.11 3
291.11 2
292.1 1
294.1 2
295.11 18
296.11 5
297.11 5
298.1 15
299.11 22
300.11 10
301.12 36
302.12 10
303.13 50
304.14 11
305.12 8
306.12 8
307.12 1
311.11 4
312.11 1
313.12 45
314.13 20
315.13 14
316.14 50
317.12 285
318.12 85
319.13 141
320.13 26
321.14 4
329.12 2
331.13 135
332.14 375
333.14 76
334.14 13
379.17 1
396.13 1
397.18 3
407.16 10
423.17 3
425.17 26

Name: 2-oxapentacyclo[21.2.2.13,7.110,14.015,20]nonacosa-1(25),3,5,7(29),10(28),11,13,15(20),16,18,23,26-dodecaene-4,13,18-triol
Synon: UTQZPYPEAXCDNU-UHFFFAOYSA-N
DB#: MSBNK-IPB_Halle-PB012201
InChIKey: UTQZPYPEAXCDNU-UHFFFAOYSA-N
InChI: InChI=1S/C28H24O4/c29-22-9-12-24-21(17-22)8-3-18-4-10-23(11-5-18)32-28-16-20(7-14-27(28)31)2-1-19-6-13-26(30)25(24)15-19/h4-7,9-17,29-31H,1-3,8H2
SMILES: C1CC2=C(C=CC(=C2)O)C3=C(C=CC(=C3)CCC4=CC(=C(C=C4)O)OC5=CC=C1C=C5)O
Precursor_type: [M+H]+
Spectrum_type: MS2
PrecursorMZ: 425.1747
Instrument_type: LC-ESI-QTOF
Instrument: Bruker MicrOTOF-Q
Ion_mode: POSITIVE
Collision_energy: 29.3881025
Formula: C28H24O4
MW: 424
ExactMass: 424.167
Comments: Parent=425.1747
Splash: splash10-03di-0392000000-b3535451cece429ea57a
Num Peaks: 128
107.05 4
113 11
119.05 5
119.08 6
120.06 11
121.06 89
122.06 9
129.07 9
130.08 4
131.05 8
133.06 14
135.05 17
135.11 8
141.07 5
143.08 4
145.07 9
146.09 11
147.12 15
149.13 14
152.06 6
153.07 17
157.1 8
159.11 20
161.13 13
163.15 21
165.07 87
166.08 19
167.09 70
168.06 4
168.09 5
169.02 38
170.08 7
171.11 10
173.06 4
175.15 12
177.07 23
177.16 12
178.08 20
179.08 35
179.15 13
180.1 4
181.07 39
182.08 29
183.08 148
184.08 21
185.09 54
186.11 7
187.15 12
188.08 5
190.17 8
191.18 17
193.07 52
194.07 50
195.08 220
196.09 132
197.07 147
198.07 66
199.08 635
200.08 98
201.08 14
201.16 35
203.08 9
203.18 42
204.18 8
206.07 9
208.09 35
209.1 131
211.08 934
212.08 901
213.09 999
214.1 142
215.1 23
215.18 16
217.2 11
219.09 6
219.17 40
220.18 5
221.1 46
221.19 6
222.1 25
223.08 58
224.08 170
225.09 748
226.1 148
227.1 46
227.18 13
228.11 10
229.19 16
231.13 6
233.09 5
237.09 47
238.1 19
239.11 674
240.11 140
241.12 17
247.17 4
251.19 4
253.19 11
267.12 6
268.14 5
270.11 4
278.11 4
286.11 14
291.14 10
295.11 12
296.13 5
297.13 7
299.1 20
300.12 9
301.12 41
302.11 10
303.13 41
306.13 7
313.12 28
314.13 17
315.13 15
316.14 50
317.12 203
318.12 52
319.13 867
320.14 195
321.14 25
329.12 7
331.13 70
332.14 205
333.14 50
334.15 10
425.18 35

Name: Berberine
Synon: [Benzo[g]-1,3-benzodioxolo[5,6-a]quinolizinium, 5,6-dihydro-9,10-dimethoxy-
DB#: MSBNK-IPB_Halle-PB001481
InChIKey: YBHILYKTIRIUTE-UHFFFAOYSA-N
InChI: InChI=1S/C20H18NO4/c1-22-17-4-3-12-7-16-14-9-19-18(24-11-25-19)8-13(14)5-6-21(16)10-15(12)20(17)23-2/h3-4,7-10H,5-6,11H2,1-2H3/q+1
SMILES: COC1=C(C2=C[N+]3=C(C=C2C=C1)C4=CC5=C(C=C4CC3)OCO5)OC
Precursor_type: [M]+
Spectrum_type: MS2
Instrument_type: LC-ESI-QQ
Instrument: TSQ 7000
Ion_mode: POSITIVE
Collision_energy: 30 eV
Formula: [C20H18NO4]+
MW: 336
ExactMass: 336.12358
Comments: Parent=-1
Splash: splash10-00dl-0039000000-5d1ff6b7636484db90d1
Num Peaks: 22
263.000 3
264.000 0
275.000 45
276.000 3
277.000 0
278.000 40
279.000 0
291.000 25
292.000 684
293.000 2
303.000 1
304.000 144
305.000 8
306.000 204
307.000 2
318.000 19
319.000 2
320.000 999
321.000 307
335.000 0
336.000 289
337.000 4

Name: Safranin
Synon: 3,7-dimethyl-10-phenylphenazin-10-ium-2,8-diamine
DB#: MSBNK-IPB_Halle-PB005983
InChIKey: WULISCVZERSMML-UHFFFAOYSA-O
InChI: InChI=1S/C20H18N4/c1-12-8-17-19(10-15(12)21)24(14-6-4-3-5-7-14)20-11-16(22)13(2)9-18(20)23-17/h3-11H,1-2H3,(H3,21,22)/p+1
SMILES: CC1=CC2=C(C=C1N)[N+](=C3C=C(C(=CC3=N2)C)N)C4=CC=CC=C4
Precursor_type: [M]+
Spectrum_type: MS2
Instrument_type: LC-ESI-QTOF
Instrument: micrOTOF-Q
Ion_mode: POSITIVE
Collision_energy: 35 eV
Formula: [C20H19N4]+
MW: 315
ExactMass: 315.16097
Comments: Parent=-1
Splash: splash10-014r-0095000000-6c9eb2cf497b4904ba8b
Num Peaks: 92
167.070 1
168.075 0
180.076 0
181.078 0
182.079 1
183.087 0
193.073 0
194.077 0
195.083 2
196.086 7
197.093 35
198.097 8
199.102 0
204.070 0
205.074 1
206.075 3
207.083 4
208.089 9
209.094 4
210.100 76
211.106 53
212.111 17
213.111 3
219.087 0
220.084 13
221.091 17
222.096 28
223.095 90
224.100 13
231.087 0
232.093 1
233.098 2
234.101 2
235.100 1
236.105 3
237.110 178
238.117 413
239.121 47
240.126 0
242.083 0
243.087 1
244.090 0
245.097 1
246.103 2
247.110 3
248.114 6
249.119 1
255.089 4
256.095 14
257.099 12
258.099 11
259.107 7
260.114 16
261.120 4
262.129 2
266.078 1
267.084 1
268.084 2
269.100 6
270.109 12
271.114 14
272.114 33
273.122 102
274.127 40
275.134 6
279.087 8
280.095 39
281.100 21
282.099 34
283.105 43
284.109 51
285.111 24
286.127 35
287.135 48
288.144 52
289.146 7
296.113 13
297.121 97
298.127 124
299.125 462
300.130 181
301.135 18
312.121 1
313.139 64
314.147 72
314.917 0
315.155 999
315.510 0
315.617 0
316.158 183
317.160 1
329.111 0

Name: Marchantin G 1
Synon: Marchantin G
Synon: 4,5,17-trihydroxy-2,15-dioxapentacyclo[22.2.2.13,7.110,14.016,21]triaconta-1(26),3(30),4,6,10(29),11,13,16(21),17,19,24,27-dodecaen-8-one
DB#: MSBNK-IPB_Halle-PB010101
InChIKey: CUIZSIJMLPQKRE-UHFFFAOYSA-N
InChI: InChI=1S/C28H22O6/c29-23-6-2-4-19-10-7-17-8-11-21(12-9-17)33-26-16-20(15-25(31)27(26)32)24(30)14-18-3-1-5-22(13-18)34-28(19)23/h1-6,8-9,11-13,15-16,29,31-32H,7,10,14H2
SMILES: C1CC2=C(C(=CC=C2)O)OC3=CC=CC(=C3)CC(=O)C4=CC(=C(C(=C4)O)O)OC5=CC=C1C=C5
Precursor_type: [M+H]+
Spectrum_type: MS2
PrecursorMZ: 455.1489
Instrument_type: LC-ESI-QTOF
Instrument: Bruker MicrOTOF-Q
Ion_mode: POSITIVE
Collision_energy: 31.6361675
Formula: C28H22O6
MW: 454
ExactMass: 454.142
Comments: Parent=455.1489
Splash: splash10-002r-0294500000-37ae2908c4f2de565b51
Num Peaks: 167
123.04 9
129.07 7
135.06 5
137.02 13
138.02 7
139.04 18
155.08 8
165.07 24
166.08 21
167.09 5
169.06 36
178.08 9
181.06 55
182.07 22
183.08 55
184.09 11
184.14 5
185.05 17
189.05 11
190.06 4
190.16 7
193.06 20
194.07 42
195.08 41
196.14 7
197.06 213
198.06 26
199.07 24
200.08 21
201.06 7
202.08 11
203.08 8
204.09 6
207.08 16
208.09 14
209.06 26
210.07 52
211.07 151
212.08 106
213.06 120
214.07 12
215.07 74
216.08 5
218.08 13
221.06 71
222.06 36
223.08 56
224.08 21
225.05 57
226.06 254
227.07 666
228.07 147
229.08 99
230.08 13
233.1 6
234.07 9
235.08 8
236.08 5
239.07 161
240.07 44
241.06 13
242.07 6
242.12 5
244.09 6
245.1 8
247.08 22
249.09 9
254.1 13
255.07 174
256.07 27
256.15 6
259.1 7
260.1 8
261.08 7
263.09 6
264.07 9
267.07 7
269.09 15
270.1 7
271.07 8
272.1 15
273.09 30
274.1 13
275.1 6
281.09 24
283.08 10
284.08 22
285.09 35
286.1 13
287.11 11
288.09 10
289.1 11
290.1 6
291.1 14
294.09 8
297.09 23
298.1 8
299.11 35
299.96 6
300.09 20
301.09 50
302.1 13
303.1 79
304.11 24
305.12 13
309.1 6
311.1 31
312.1 29
313.09 125
314.09 35
315.1 37
316.12 9
317.12 51
318.08 9
319.11 16
320.12 9
325.08 9
327.1 17
328.1 11
329.08 183
330.09 146
331.1 229
332.1 36
333.12 12
343.1 16
344.1 50
345.08 57
345.17 12
346.09 44
347.09 50
349.1 13
360.09 5
361.09 7
363.09 23
372.11 8
373.12 11
377.1 4
382.15 6
387.11 5
390.09 5
391.13 14
394.07 5
395.09 5
397.1 8
398.13 9
401 7
401.11 12
402.12 5
406.18 5
407.08 5
409.14 26
410.15 8
412.1 7
419.12 25
420.15 9
421.09 5
422.1 5
423.12 4
427.15 9
432.12 7
434.02 5
437.14 999
438.14 299
439.15 82
440.15 14
455.15 101
457.14 9

Name: Quercetin
Synon: 2-(3,4-dihydroxyphenyl)-3,5,7-trihydroxychromen-4-one
DB#: MSBNK-IPB_Halle-PB002410
InChIKey: REFJWTPEDVJJIY-UHFFFAOYSA-N
InChI: InChI=1S/C15H10O7/c16-7-4-10(19)12-11(5-7)22-15(14(21)13(12)20)6-1-2-8(17)9(18)3-6/h1-5,16-19,21H
SMILES: C1=CC(=C(C=C1C2=C(C(=O)C3=C(C=C(C=C3O2)O)O)O)O)O
Precursor_type: [M-H]-
Spectrum_type: MS2
Instrument_type: LC-ESI-QTOF
Instrument: API QSTAR Pulsar i
Ion_mode: NEGATIVE
Collision_energy: 25 eV
Formula: C15H10O7
MW: 302
ExactMass: 302.04265
Comments: Parent=-1
Splash: splash10-0udi-0903000000-fd4be6f2614be7172a35
Num Peaks: 14
107.016 74
121.029 175
125.023 9
149.026 18
151.004 999
163.019 19
169.013 15
178.996 646
193.010 28
229.052 40
245.049 19
257.048 22
273.044 88
301.035 765

Name: S,R-Noscapine
Synon: (3S)-6,7-dimethoxy-3-[(5R)-4-methoxy-6-methyl-7,8-dihydro-5H-[1,3]dioxolo[4,5-g]isoquinolin-5-yl]-3H-2-benzofuran-1-one
DB#: MSBNK-IPB_Halle-PB005905
InChIKey: AKNNEGZIBPJZJG-MSOLQXFVSA-N
InChI: InChI=1S/C22H23NO7/c1-23-8-7-11-9-14-20(29-10-28-14)21(27-4)15(11)17(23)18-12-5-6-13(25-2)19(26-3)16(12)22(24)30-18/h5-6,9,17-18H,7-8,10H2,1-4H3/t17-,18+/m1/s1
SMILES: CN1CCC2=CC3=C(C(=C2[C@@H]1[C@@H]4C5=C(C(=C(C=C5)OC)OC)C(=O)O4)OC)OCO3
Precursor_type: [M+H]+
Spectrum_type: MS2
Instrument_type: LC-ESI-QTOF
Instrument: micrOTOF-Q
Ion_mode: POSITIVE
Collision_energy: 10 eV
Formula: C22H23NO7
MW: 413
ExactMass: 413.14745
Comments: Parent=-1
Splash: splash10-03di-0010900000-8a6afc6a45b278bd8a13
Num Peaks: 18
179.068 0
205.071 0
220.095 128
221.097 10
248.088 0
324.095 0
350.075 0
353.098 15
354.098 0
365.097 5
371.109 0
383.107 0
396.140 1
413.803 0
414.151 999
414.751 0
415.154 176
416.157 8

Name: (20S)-14-oxapentacyclo[20.2.2.210,13.115,19.02,7]nonacosa-1(24),2(7),3,5,10(29),11,13(28),15,17,19(27),22,25-dodecaene-5,16,20,24-tetrol
Synon: Maruchantin E
DB#: MSBNK-IPB_Halle-PB011801
InChIKey: BTGPMKAMOFOWKF-SANMLTNESA-N
InChI: InChI=1S/C28H24O5/c29-21-7-11-23-19(15-21)5-1-17-2-8-22(9-3-17)33-28-16-20(6-12-25(28)30)26(31)13-18-4-10-24(23)27(32)14-18/h2-4,6-12,14-16,26,29-32H,1,5,13H2/t26-/m0/s1
SMILES: C1CC2=C(C=CC(=C2)O)C3=C(C=C(C[C@@H](C4=CC(=C(C=C4)O)OC5=CC=C1C=C5)O)C=C3)O
Precursor_type: [M+H]+
Spectrum_type: MS2
PrecursorMZ: 441.1697
Instrument_type: LC-ESI-QTOF
Instrument: Bruker MicrOTOF-Q
Ion_mode: POSITIVE
Collision_energy: 30.58772
Formula: C28H24O5
MW: 440
ExactMass: 440.162
Comments: Parent=441.1697
Splash: splash10-01t9-0291000000-39d565a15ebe3a39cc79
Num Peaks: 220
107.05 7
115.06 3
117.07 6
119.05 16
120.05 12
121.06 100
122.07 10
123.04 34
124.04 3
125.02 7
127.05 2
128.06 3
129.07 6
130.07 3
131.05 12
133.06 19
135.04 53
136.05 19
137.06 19
139.04 4
140.05 2
141.07 5
143.08 5
144.06 2
145.06 22
146.07 3
147.04 5
149.06 10
151.04 9
152.06 9
153.07 12
154.07 4
155.08 7
157.07 15
158.07 2
159.08 3
161.06 6
163.07 2
164.07 20
165.07 53
166.08 19
167.08 80
168.08 10
169.06 38
170.07 13
171.08 37
172.09 7
173.06 4
175.07 1
176.06 3
177.07 21
178.08 27
179.09 34
180.1 7
181.07 169
182.07 39
183.08 182
184.08 36
185.1 65
186.1 10
187.07 26
188.08 2
189.08 1
190.08 1
191.09 16
192.09 6
193.09 35
194.08 33
195.08 231
196.09 245
197.06 209
198.07 109
199.08 440
200.08 82
201.09 28
202.09 8
203.08 14
204.09 3
205.07 3
206.07 5
207.08 60
208.09 26
209.09 187
210.07 153
211.08 571
212.08 228
212.98 2
213.09 999
214.09 153
215.07 698
216.07 88
217.08 9
219.08 9
220.09 7
221.1 61
222.1 23
223.08 100
224.08 251
225.09 625
226.07 155
227.07 612
228.08 481
229.09 738
230.09 110
231.09 10
233.09 2
235.08 6
236.08 6
237.09 76
238.1 26
239.11 868
240.09 207
241.09 925
242.09 158
243.07 29
244.07 48
245.08 8
246.08 1
246.11 1
247.1 2
248.19 1
249.09 6
250.1 2
251.09 2
252.08 1
252.09 2
253.09 17
254.09 10
255.1 549
256.11 85
257.1 19
258.1 4
259.11 8
261.1 2
262.1 2
263.1 4
265.1 6
267.1 3
268.09 2
269.1 6
271.11 6
272.12 2
273.12 6
274.12 2
275.11 7
276.12 3
277.12 5
281.1 3
283.11 17
284.1 6
285.1 7
286.1 10
287.11 26
288.11 9
289.12 12
290.13 5
291.12 6
291.14 3
293.11 2
295.11 3
296.12 2
297.09 7
299.11 15
300.1 6
301.12 61
302.12 19
303.13 46
304.13 10
305.12 13
306.12 11
307.13 6
308.14 2
311.11 13
312.11 7
313.12 12
314.1 14
315.11 44
316.14 147
317.12 114
318.12 32
319.13 331
320.13 80
321.12 10
322.12 11
327.09 2
327.1 2
328.11 2
329.12 50
330.12 26
331.13 34
332.14 43
333.11 185
334.12 41
335.13 105
336.13 23
337.13 3
345.11 16
346.12 6
347.13 57
348.13 69
349.14 17
350.14 3
363.13 2
377.16 3
381.15 3
393.15 3
395.16 19
396.18 3
397.16 2
405.15 6
406.15 2
411.16 3
413.17 9
414.17 4
423.16 98
424.16 30
425.16 6
439.16 33
440.16 8
441.17 186

Name: Rotenone
Synon: (2R,6aS,12aS)-1,2,6,6a,12,12a-hexahydro-2-isopropenyl-8,9-dimethoxychromeno[3,4-b]furo(2,3-h)chromen-6-one
DB#: MSBNK-IPB_Halle-PB005742
InChIKey: JUVIOZPCNVVQFO-HBGVWJBISA-N
InChI: InChI=1S/C23H22O6/c1-11(2)16-8-14-15(28-16)6-5-12-22(24)21-13-7-18(25-3)19(26-4)9-17(13)27-10-20(21)29-23(12)14/h5-7,9,16,20-21H,1,8,10H2,2-4H3/t16-,20-,21+/m1/s1
SMILES: CC(=C)[C@H]1CC2=C(O1)C=CC3=C2O[C@@H]4COC5=CC(=C(C=C5[C@@H]4C3=O)OC)OC
Precursor_type: [M+H]+
Spectrum_type: MS2
Instrument_type: LC-ESI-QTOF
Instrument: micrOTOF-Q
Ion_mode: POSITIVE
Collision_energy: 15 eV
Formula: C23H22O6
MW: 394
ExactMass: 394.14164
Comments: Parent=-1
Splash: splash10-0002-0129000000-cc8a296246aa7e1b7fec
Num Peaks: 57
135.041 0
139.073 5
147.042 0
155.068 0
161.059 0
167.068 25
168.073 1
175.072 1
179.067 23
180.068 0
189.088 19
190.092 1
191.068 12
192.075 75
193.082 13
195.073 3
198.066 0
203.067 54
204.070 4
207.098 0
213.088 185
214.091 18
215.071 0
215.096 1
217.082 1
219.061 5
220.070 7
221.115 1
223.069 0
229.083 1
233.115 0
241.082 88
242.086 9
245.115 0
257.114 0
299.086 1
311.086 0
312.093 1
327.080 4
335.117 0
336.130 0
339.134 0
364.124 0
365.137 0
367.148 71
368.153 11
377.133 7
378.138 0
380.118 0
394.748 0
394.838 0
394.927 0
395.142 999
395.415 0
395.644 0
396.146 200
397.150 8

Name: o-Anisic acid
Synon: 2-methoxybenzoic acid
DB#: MSBNK-IPB_Halle-PB006063
InChIKey: ILUJQPXNXACGAN-UHFFFAOYSA-N
InChI: InChI=1S/C8H8O3/c1-11-7-5-3-2-4-6(7)8(9)10/h2-5H,1H3,(H,9,10)
SMILES: COC1=CC=CC=C1C(=O)O
Precursor_type: [M+H]+
Spectrum_type: MS2
Instrument_type: LC-ESI-QTOF
Instrument: micrOTOF-Q
Ion_mode: POSITIVE
Collision_energy: 20 eV
Formula: C8H8O3
MW: 152
ExactMass: 152.04734
Comments: Parent=-1
Splash: splash10-000i-0900000000-cfade89e06a07686d38a
Num Peaks: 7
120.018 32
121.025 1
133.025 0
134.932 0
135.042 999
136.045 75
137.046 1

Name: Vitexin-2''-O-rhamnoside
Synon: 8-[(2S,3R,4S,5S,6R)-4,5-dihydroxy-6-(hydroxymethyl)-3-[(2S,3R,4R,5R,6S)-3,4,5-trihydroxy-6-methyloxan-2-yl]oxyoxan-2-yl]-5,7-dihydroxy-2-(4-hydroxyphenyl)chromen-4-one
DB#: MSBNK-IPB_Halle-PB006221
InChIKey: LYGPBZVKGHHTIE-HUBYJIGHSA-N
InChI: InChI=1S/C27H30O14/c1-9-19(33)21(35)23(37)27(38-9)41-26-22(36)20(34)16(8-28)40-25(26)18-13(31)6-12(30)17-14(32)7-15(39-24(17)18)10-2-4-11(29)5-3-10/h2-7,9,16,19-23,25-31,33-37H,8H2,1H3/t9-,16+,19-,20+,21+,22-,23+,25-,26+,27-/m0/s1
SMILES: C[C@H]1[C@@H]([C@H]([C@H]([C@@H](O1)O[C@@H]2[C@H]([C@@H]([C@H](O[C@H]2C3=C(C=C(C4=C3OC(=CC4=O)C5=CC=C(C=C5)O)O)O)CO)O)O)O)O)O
Precursor_type: [M+H]+
Spectrum_type: MS2
Instrument_type: LC-ESI-QTOF
Instrument: micrOTOF-Q
Ion_mode: POSITIVE
Collision_energy: 10 eV
Formula: C27H30O14
MW: 578
ExactMass: 578.16356
Comments: Parent=-1
Splash: splash10-004i-0000190000-e0cb650947897badda7d
Num Peaks: 23
271.056 4
283.059 0
295.057 0
313.065 7
337.066 0
367.076 0
397.087 2
415.097 8
416.098 0
433.108 134
434.111 18
435.114 0
459.124 0
578.526 0
578.645 0
578.769 0
578.862 0
579.164 999
579.739 0
579.860 0
579.941 0
580.167 215
581.169 12

Name: Indoleacetic acid
Synon: 2-(1H-indol-3-yl)acetic acid
DB#: MSBNK-IPB_Halle-PB000511
InChIKey: SEOVTRFCIGRIMH-UHFFFAOYSA-N
InChI: InChI=1S/C10H9NO2/c12-10(13)5-7-6-11-9-4-2-1-3-8(7)9/h1-4,6,11H,5H2,(H,12,13)
SMILES: C1=CC=C2C(=C1)C(=CN2)CC(=O)O
Precursor_type: [M+H]+
Spectrum_type: MS2
Instrument_type: LC-ESI-QTOF
Instrument: API QSTAR Pulsar i
Ion_mode: POSITIVE
Collision_energy: 20 eV
Formula: C10H9NO2
MW: 175
ExactMass: 175.06333
Comments: Parent=-1
Splash: splash10-004i-0900000000-fbf9b9f81195fcec794d
Num Peaks: 16
98.984 4
116.047 2
117.056 3
130.063 218
133.050 22
141.091 2
144.042 185
146.062 7
148.073 304
149.022 23
158.062 8
161.045 5
162.057 2
165.995 1
176.070 999
177.080 12

Name: Vitexin-2''-O-rhamnoside
Synon: 8-[(2S,3R,4S,5S,6R)-4,5-dihydroxy-6-(hydroxymethyl)-3-[(2S,3R,4R,5R,6S)-3,4,5-trihydroxy-6-methyloxan-2-yl]oxyoxan-2-yl]-5,7-dihydroxy-2-(4-hydroxyphenyl)chromen-4-one
DB#: MSBNK-IPB_Halle-PB006222
InChIKey: LYGPBZVKGHHTIE-HUBYJIGHSA-N
InChI: InChI=1S/C27H30O14/c1-9-19(33)21(35)23(37)27(38-9)41-26-22(36)20(34)16(8-28)40-25(26)18-13(31)6-12(30)17-14(32)7-15(39-24(17)18)10-2-4-11(29)5-3-10/h2-7,9,16,19-23,25-31,33-37H,8H2,1H3/t9-,16+,19-,20+,21+,22-,23+,25-,26+,27-/m0/s1
SMILES: C[C@H]1[C@@H]([C@H]([C@H]([C@@H](O1)O[C@@H]2[C@H]([C@@H]([C@H](O[C@H]2C3=C(C=C(C4=C3OC(=CC4=O)C5=CC=C(C=C5)O)O)O)CO)O)O)O)O)O
Precursor_type: [M+H]+
Spectrum_type: MS2
Instrument_type: LC-ESI-QTOF
Instrument: micrOTOF-Q
Ion_mode: POSITIVE
Collision_energy: 15 eV
Formula: C27H30O14
MW: 578
ExactMass: 578.16356
Comments: Parent=-1
Splash: splash10-003r-0000980000-5b92bd4d2904a60b6ee5
Num Peaks: 39
271.058 34
272.061 2
283.057 6
295.057 8
296.062 0
313.068 64
314.071 7
337.066 10
338.068 0
343.078 1
355.081 0
367.079 7
368.079 0
379.078 4
397.088 20
398.092 1
415.099 76
416.101 10
417.110 0
432.736 0
433.109 999
433.453 0
433.675 0
433.802 0
434.112 154
435.115 6
441.114 0
459.125 8
460.128 0
475.116 0
517.128 1
561.158 2
578.734 0
579.165 984
579.589 0
579.714 0
579.810 0
580.168 216
581.172 10

Name: Genistein
Synon: 5,7-dihydroxy-3-(4-hydroxyphenyl)chromen-4-one
DB#: MSBNK-IPB_Halle-PB000882
InChIKey: TZBJGXHYKVUXJN-UHFFFAOYSA-N
InChI: InChI=1S/C15H10O5/c16-9-3-1-8(2-4-9)11-7-20-13-6-10(17)5-12(18)14(13)15(11)19/h1-7,16-18H
SMILES: C1=CC(=CC=C1C2=COC3=CC(=CC(=C3C2=O)O)O)O
Precursor_type: [M+H]+
Spectrum_type: MS2
Instrument_type: LC-ESI-QTOF
Instrument: API QSTAR Pulsar i
Ion_mode: POSITIVE
Collision_energy: 25 eV
Formula: C15H10O5
MW: 270
ExactMass: 270.05282
Comments: Parent=-1
Splash: splash10-00di-0190000000-af442f78e868fd43ac61
Num Peaks: 10
145.033 20
149.028 39
153.023 101
159.051 14
197.070 10
215.081 110
243.077 114
253.062 40
271.060 999
272.074 36

Name: 5-methoxyindole-3-carbaldehyde
DB#: MSBNK-IPB_Halle-PB000505
InChIKey: TUWARWGEOHQXCO-UHFFFAOYSA-N
InChI: InChI=1S/C10H9NO2/c1-13-8-2-3-10-9(4-8)7(6-12)5-11-10/h2-6,11H,1H3
SMILES: COC1=CC2=C(C=C1)NC=C2C=O
Precursor_type: [M+H]+
Spectrum_type: MS2
Instrument_type: LC-ESI-QTOF
Instrument: API QSTAR Pulsar i
Ion_mode: POSITIVE
Collision_energy: 60 eV
Formula: C10H9NO2
MW: 175
ExactMass: 175.06333
Comments: Parent=-1
Splash: splash10-0fb9-9600000000-5d3ebbee65af98271928
Num Peaks: 27
39.021 5
50.015 14
51.023 68
52.031 86
53.037 4
63.023 78
64.030 11
65.039 80
75.022 3
76.029 16
77.037 315
78.043 393
79.041 297
80.045 5
89.038 275
90.045 174
91.053 46
95.048 32
96.043 16
102.035 3
104.050 999
105.056 185
106.048 6
116.051 16
117.058 93
132.043 21
133.050 11

Name: Chrysoeriol glucosylglucoside
DB#: MSBNK-IPB_Halle-PN000047
InChI: N/A
SMILES: N/A
Precursor_type: [M+H]+
Spectrum_type: MS2
PrecursorMZ: 625.176
Instrument_type: ESI-TOF
Instrument: micrOTOF-Q
Ion_mode: POSITIVE
Collision_energy: 15 eV
Formula: C28H32O16
MW: 624
ExactMass: 624.169034944
Comments: Parent=625.176
Splash: splash10-0udi-0009100000-ecd25ad89f69e22e62f7
Num Peaks: 14
127.0408 1
145.0493 3
301.0705 999
302.0739 97
303.0741 13
397.0868 1
427.1002 2
445.1069 2
463.1217 114
464.1239 19
465.1288 6
625.1746 70
626.1761 16
627.1774 5

Name: Oxycodone
Synon: Morphinan-6-one, 4,5alpha-epoxy-14-hydroxy-3-methoxy-17-methyl-
DB#: MSBNK-IPB_Halle-PB002103
InChIKey: BRUQQQPBMZOVGD-UHFFFAOYSA-N
InChI: InChI=1S/C18H21NO4/c1-19-8-7-17-14-10-3-4-12(22-2)15(14)23-16(17)11(20)5-6-18(17,21)13(19)9-10/h3-4,13,16,21H,5-9H2,1-2H3
SMILES: CN1CCC23C4C(=O)CCC2(C1CC5=C3C(=C(C=C5)OC)O4)O
Precursor_type: [M+H]+
Spectrum_type: MS2
Instrument_type: LC-ESI-QQ
Instrument: TSQ 7000
Ion_mode: POSITIVE
Collision_energy: 40 eV
Formula: C18H21NO4
MW: 315
ExactMass: 315.14706
Comments: Parent=-1
Splash: splash10-0006-1490000000-1ec9bd9b26b7b165bd9c
Num Peaks: 191
28.000 1
29.000 2
31.000 0
32.000 1
41.000 2
42.000 31
43.000 43
44.000 72
45.000 18
46.000 1
55.000 16
56.000 9
57.000 3
58.000 90
59.000 44
67.000 0
68.000 1
69.000 4
70.000 147
71.000 37
72.000 6
80.000 6
81.000 1
82.000 9
83.000 5
84.000 8
91.000 24
92.000 1
93.000 3
94.000 72
95.000 3
96.000 6
97.000 2
103.000 6
105.000 2
106.000 3
107.000 0
108.000 25
109.000 9
110.000 8
115.000 15
116.000 5
117.000 0
118.000 4
119.000 4
120.000 5
121.000 1
122.000 9
123.000 0
124.000 2
128.000 14
129.000 13
130.000 12
131.000 48
132.000 39
133.000 26
134.000 1
135.000 3
136.000 2
137.000 11
140.000 0
141.000 17
142.000 11
143.000 10
144.000 20
145.000 8
146.000 5
147.000 2
148.000 10
149.000 5
151.000 1
152.000 5
153.000 57
154.000 15
155.000 17
156.000 8
157.000 27
158.000 15
159.000 72
160.000 35
161.000 38
162.000 22
163.000 5
164.000 3
165.000 20
166.000 1
167.000 48
168.000 13
169.000 36
170.000 12
171.000 14
172.000 30
173.000 20
174.000 54
175.000 202
176.000 29
177.000 2
178.000 5
179.000 13
180.000 1
181.000 163
182.000 28
183.000 33
184.000 46
185.000 22
186.000 15
187.000 236
188.000 42
189.000 24
190.000 10
191.000 3
192.000 1
193.000 13
194.000 22
195.000 80
196.000 61
197.000 79
198.000 56
199.000 129
200.000 42
201.000 24
202.000 66
203.000 38
204.000 1
205.000 1
206.000 3
207.000 13
208.000 8
209.000 37
210.000 50
211.000 58
212.000 320
213.000 260
214.000 31
215.000 22
216.000 13
218.000 2
219.000 3
220.000 34
221.000 49
222.000 28
223.000 36
224.000 134
225.000 119
226.000 260
227.000 126
228.000 89
229.000 37
230.000 14
231.000 2
233.000 3
234.000 12
235.000 7
236.000 16
237.000 44
238.000 44
239.000 32
240.000 190
241.000 999
242.000 107
243.000 17
247.000 2
248.000 37
249.000 11
250.000 26
251.000 2
252.000 56
253.000 6
254.000 68
255.000 70
256.000 466
257.000 62
264.000 25
265.000 39
266.000 67
267.000 42
268.000 43
269.000 21
270.000 60
271.000 22
280.000 36
282.000 43
283.000 28
284.000 11
296.000 0
297.000 3
298.000 489
299.000 42
300.000 1
315.000 4
316.000 29

Name: Serine
Synon: 2-amino-3-hydroxypropanoic acid
DB#: MSBNK-IPB_Halle-PB000402
InChIKey: MTCFGRXMJLQNBG-UHFFFAOYSA-N
InChI: InChI=1S/C3H7NO3/c4-2(1-5)3(6)7/h2,5H,1,4H2,(H,6,7)
SMILES: C(C(C(=O)O)N)O
Precursor_type: [M+H]+
Spectrum_type: MS2
Instrument_type: LC-ESI-QTOF
Instrument: API QSTAR Pulsar i
Ion_mode: POSITIVE
Collision_energy: 30 eV
Formula: C3H7NO3
MW: 105
ExactMass: 105.04259
Comments: Parent=-1
Splash: splash10-03dl-9000000000-ab6a722fc111a67e6756
Num Peaks: 5
42.035 550
43.019 82
60.045 999
70.030 25
88.040 9

Name: 2'-Hydroxygenistein 8-C-glucoside
Synon: 2'-Hydroxygenistein-8-C-glucoside
DB#: MSBNK-IPB_Halle-PN000012
InChIKey: HXZMIYTWLNHLCX-CFVFPOCXSA-N
InChI: InChI=1S/C21H20O11/c22-5-13-17(28)18(29)19(30)21(32-13)15-12(26)4-11(25)14-16(27)9(6-31-20(14)15)8-2-1-7(23)3-10(8)24/h1-4,6,13,17-19,21-26,28-30H,5H2/t13-,17-,18+,19-,21?/m1/s1
SMILES: C1=CC(=C(C=C1O)O)C2=COC3=C(C2=O)C(=CC(=C3C4[C@@H]([C@H]([C@@H]([C@H](O4)CO)O)O)O)O)O
Precursor_type: [M+H]+
Spectrum_type: MS2
PrecursorMZ: 449.111
Instrument_type: ESI-TOF
Instrument: micrOTOF-Q
Ion_mode: POSITIVE
Collision_energy: 15 eV
Formula: C21H20O11
MW: 448
ExactMass: 448.10056146
Comments: Parent=449.111
Splash: splash10-01qa-0004900000-0052aaa3961ec85eff49
Num Peaks: 34
287.0529 6
299.0582 49
300.0615 9
311.0574 13
329.0684 238
330.0718 36
331.0762 9
339.0793 9
341.0696 8
353.0703 173
354.0716 31
355.0798 7
359.0790 97
360.0835 22
365.0654 18
367.0849 79
368.0855 14
371.0735 38
372.0781 9
383.0802 268
384.0830 54
385.0948 16
395.0794 249
396.0821 44
397.0869 10
413.0889 999
414.0897 157
415.0994 38
431.1002 874
432.1023 141
433.1036 31
449.1096 505
450.1111 93
451.1197 17

Name: Asparagine
Synon: 2,4-diamino-4-oxobutanoic acid
DB#: MSBNK-IPB_Halle-PB000460
InChIKey: DCXYFEDJOCDNAF-UHFFFAOYSA-N
InChI: InChI=1S/C4H8N2O3/c5-2(4(8)9)1-3(6)7/h2H,1,5H2,(H2,6,7)(H,8,9)
SMILES: C(C(C(=O)O)N)C(=O)N
Precursor_type: [M+H]+
Spectrum_type: MS2
Instrument_type: LC-ESI-QTOF
Instrument: API QSTAR Pulsar i
Ion_mode: POSITIVE
Collision_energy: 40 eV
Formula: C4H8N2O3
MW: 132
ExactMass: 132.05349
Comments: Parent=-1
Splash: splash10-00di-9000000000-900d84080b7c4de3804c
Num Peaks: 23
37.029 9
42.034 25
43.019 300
44.050 257
45.043 47
46.030 144
53.004 37
55.020 10
55.055 7
60.046 63
65.042 14
70.030 273
71.013 15
74.024 999
77.039 43
79.056 21
87.058 12
88.040 8
91.055 38
99.012 14
103.056 6
105.071 20
115.055 6

Name: Syringaldehyde
Synon: 4-hydroxy-3,5-dimethoxybenzaldehyde
DB#: MSBNK-IPB_Halle-PB000620
InChIKey: KCDXJAYRVLXPFO-UHFFFAOYSA-N
InChI: InChI=1S/C9H10O4/c1-12-7-3-6(5-10)4-8(13-2)9(7)11/h3-5,11H,1-2H3
SMILES: COC1=CC(=CC(=C1O)OC)C=O
Precursor_type: [M+H]+
Spectrum_type: MS2
Instrument_type: LC-ESI-QTOF
Instrument: API QSTAR Pulsar i
Ion_mode: POSITIVE
Collision_energy: 25 eV
Formula: C9H10O4
MW: 182
ExactMass: 182.05791
Comments: Parent=-1
Splash: splash10-002b-9500000000-648b4cea88c99f600180
Num Peaks: 12
55.021 29
65.040 42
67.056 109
77.041 565
93.037 16
95.054 999
105.050 33
123.047 442
125.026 51
140.052 406
155.075 29
182.060 29

Name: Indole-3-acetyl-L-valine
Synon: (2S)-2-[[2-(1H-indol-3-yl)acetyl]amino]-3-methylbutanoic acid
DB#: MSBNK-IPB_Halle-PB000554
InChIKey: AZEGJHGXTSUPPG-AWEZNQCLSA-N
InChI: InChI=1S/C15H18N2O3/c1-9(2)14(15(19)20)17-13(18)7-10-8-16-12-6-4-3-5-11(10)12/h3-6,8-9,14,16H,7H2,1-2H3,(H,17,18)(H,19,20)/t14-/m0/s1
SMILES: CC(C)[C@@H](C(=O)O)NC(=O)CC1=CNC2=CC=CC=C21
Precursor_type: [M+H]+
Spectrum_type: MS2
Instrument_type: LC-ESI-QTOF
Instrument: API QSTAR Pulsar i
Ion_mode: POSITIVE
Collision_energy: 55 eV
Formula: C15H18N2O3
MW: 274
ExactMass: 274.13174
Comments: Parent=-1
Splash: splash10-001i-2900000000-789767c18ed0285ce9b8
Num Peaks: 6
55.057 106
72.079 202
77.042 28
103.058 69
128.047 9
130.065 999

Name: Isovitexin
Synon: Homovitexin
Synon: Saponaretin
Synon: Apigenin-6-C-glucoside
DB#: MSBNK-IPB_Halle-PN000123
InChIKey: MYXNWGACZJSMBT-VJXVFPJBSA-N
InChI: InChI=1S/C21H20O10/c22-7-14-17(26)19(28)20(29)21(31-14)16-11(25)6-13-15(18(16)27)10(24)5-12(30-13)8-1-3-9(23)4-2-8/h1-6,14,17,19-23,25-29H,7H2/t14-,17-,19+,20-,21+/m1/s1
SMILES: C1=CC(=CC=C1C2=CC(=O)C3=C(C(=C(C=C3O2)O)[C@H]4[C@@H]([C@H]([C@@H]([C@H](O4)CO)O)O)O)O)O
Precursor_type: [M+H]+
Spectrum_type: MS2
PrecursorMZ: 433.112
Instrument_type: ESI-TOF
Instrument: micrOTOF-Q
Ion_mode: POSITIVE
Collision_energy: 15 eV
Formula: C21H20O10
MW: 432
ExactMass: 432.10564683999996
Comments: Parent=433.112
Splash: splash10-03e9-0029000000-25679f3bac3f6d0c7734
Num Peaks: 36
271.0598 41
272.0629 12
283.0595 999
284.0632 145
285.0690 28
295.0613 37
297.0749 12
309.0688 36
311.0556 14
313.0706 996
314.0743 117
315.0722 19
323.0918 113
324.0937 26
325.0829 13
333.0769 16
337.0698 432
338.0725 90
339.0743 17
349.0692 151
350.0767 38
351.0868 74
352.0873 15
361.0716 378
362.0758 64
363.0794 15
367.0814 168
368.0872 28
379.0799 673
380.0836 130
381.0877 19
397.0914 443
398.0949 76
399.0997 12
415.1011 87
416.1025 14

Name: 3-Formylindole
Synon: 1H-indole-3-carbaldehyde
DB#: MSBNK-IPB_Halle-PB000507
InChIKey: OLNJUISKUQQNIM-UHFFFAOYSA-N
InChI: InChI=1S/C9H7NO/c11-6-7-5-10-9-4-2-1-3-8(7)9/h1-6,10H
SMILES: C1=CC=C2C(=C1)C(=CN2)C=O
Precursor_type: [M+H]+
Spectrum_type: MS2
Instrument_type: LC-ESI-QTOF
Instrument: API QSTAR Pulsar i
Ion_mode: POSITIVE
Collision_energy: 25 eV
Formula: C9H7NO
MW: 145
ExactMass: 145.05276
Comments: Parent=-1
Splash: splash10-014i-2900000000-878ab4a0cfc6d8f0e9d0
Num Peaks: 5
91.056 330
117.059 84
118.069 999
145.050 13
146.063 30

Name: Luteolin 7-O-glucoside
Synon: Luteolin-7-O-glucoside
Synon: 7-O-Beta-D-Glucosyl-5,7,3',4'-tetrahydroxyflavone
Synon: Cynaroside
Synon: Glucoluteolin
Synon: Luteoloside
DB#: MSBNK-IPB_Halle-PN000059
InChIKey: PEFNSGRTCBGNAN-QNDFHXLGSA-N
InChI: InChI=1S/C21H20O11/c22-7-16-18(27)19(28)20(29)21(32-16)30-9-4-12(25)17-13(26)6-14(31-15(17)5-9)8-1-2-10(23)11(24)3-8/h1-6,16,18-25,27-29H,7H2/t16-,18-,19+,20-,21-/m1/s1
SMILES: C1=CC(=C(C=C1C2=CC(=O)C3=C(C=C(C=C3O2)O[C@H]4[C@@H]([C@H]([C@@H]([C@H](O4)CO)O)O)O)O)O)O
Precursor_type: [M-H]-
Spectrum_type: MS2
PrecursorMZ: 447.094
Instrument_type: ESI-TOF
Instrument: micrOTOF-Q
Ion_mode: NEGATIVE
Collision_energy: 25 eV
Formula: C21H20O11
MW: 448
ExactMass: 448.10056146
Comments: Parent=447.094
Splash: splash10-000i-0090000000-46d449cdec05ae23c066
Num Peaks: 4
285.040 999
286.044 159
287.047 26
412.830 70

